POSCAR from GenerativeModels
1.0
2.000000000000000000e+01 0.000000000000000000e+00 0.000000000000000000e+00
0.000000000000000000e+00 2.000000000000000000e+01 0.000000000000000000e+00
0.000000000000000000e+00 0.000000000000000000e+00 2.000000000000000000e+01
Ag Al As B Ba Be Br C Ca Cd Cl Co Cr Cu F Fe Ga Gd Ge H I In K Kr La Li Mg Mn Mo N Nb Ni O P Pd Rb Ru S Sb Sc Se Si Sn Sr Tc Te Ti V Zn Zr
1 1 5 4 3 4 3 9 10 4 10 9 1 1 2 4 5 1 8 61 1 1 4 10 1 3 12 13 4 2 4 18 7 1 1 2 3 12 2 11 10 6 1 5 2 5 7 15 7 2
Direct
7.017120105595499036e-01 6.757421436189190445e-01 0.000000000000000000e+00
5.742610292540052397e-01 6.733422565341162791e-01 0.000000000000000000e+00
3.564507981449253071e-01 5.032476019824669855e-01 0.000000000000000000e+00
8.212596318336289336e-01 4.989717636278241386e-01 1.624103734599362525e-01
3.086568813907273334e-01 3.995864091767320492e-01 0.000000000000000000e+00
8.045181354131809570e-01 7.077885639718117794e-01 0.000000000000000000e+00
6.201134416195777099e-01 2.297516636376628618e-01 0.000000000000000000e+00
9.260648409240067602e-01 7.037053474939826136e-01 0.000000000000000000e+00
2.522046770856887221e-01 2.817269535575550599e-02 2.262551068187573788e-01
8.516764548711862615e-01 6.422029793714916224e-01 0.000000000000000000e+00
9.104036236344092980e-02 2.316446940935656951e-01 5.121349851471298509e-01
6.323226500946382833e-01 3.634898099743102406e-01 0.000000000000000000e+00
8.131806916538339980e-01 2.896101254560345950e-01 4.054288761318082246e-01
4.444661527171691606e-01 5.180302728969147230e-01 0.000000000000000000e+00
5.968776744898488529e-01 4.478718910255291563e-01 0.000000000000000000e+00
2.768661253698223579e-01 5.644551168175706568e-01 0.000000000000000000e+00
4.384405278703606967e-01 3.298416347933889048e-01 0.000000000000000000e+00
4.361999332894144210e-01 6.362373869804921478e-01 0.000000000000000000e+00
4.105719130761873448e-01 5.443528332064844211e-01 3.023851258166341260e-01
6.086112349951547928e-01 3.091216987035068087e-01 0.000000000000000000e+00
5.566483061908823471e-01 7.678300422000128300e-01 2.324490272418285874e-01
3.045525882825368402e-01 7.128135421810901651e-01 0.000000000000000000e+00
7.190172777962571260e-01 5.447739732451556405e-01 0.000000000000000000e+00
2.602975248205630088e-01 3.599768185588803071e-01 0.000000000000000000e+00
6.004874325324774942e-01 6.418992130243850180e-01 0.000000000000000000e+00
5.402900797521975607e-01 5.098803850786642888e-01 0.000000000000000000e+00
6.390556949839626411e-01 8.258604988977785721e-01 0.000000000000000000e+00
7.558663346237168845e-01 3.488683773972536262e-01 0.000000000000000000e+00
6.630327913603878409e-01 5.227877510742776623e-01 0.000000000000000000e+00
2.336331475880829567e-01 4.325496480870609783e-01 0.000000000000000000e+00
7.769470696993184822e-01 8.601631002868752596e-01 0.000000000000000000e+00
1.938540023598736006e-01 5.494056641793647611e-01 0.000000000000000000e+00
6.869025625451881112e-01 8.753566249400114296e-01 0.000000000000000000e+00
5.732002145360702849e-01 4.582614150194515013e-01 0.000000000000000000e+00
5.096168434892327515e-01 3.665935914125024730e-01 0.000000000000000000e+00
3.422198494756034659e-01 3.966718924747516528e-01 0.000000000000000000e+00
5.738789948459694923e-01 2.827949039916004548e-01 0.000000000000000000e+00
5.013624515370791457e-01 3.527362823884745424e-01 4.799644119857786606e-01
5.401959806882562498e-01 2.668707443035016613e-01 0.000000000000000000e+00
5.633387527681561480e-01 3.226996373114650041e-01 1.608438738606131624e-01
3.872330969087767194e-01 5.664289986582019543e-01 0.000000000000000000e+00
4.662041338838842641e-01 1.640795155497767333e-01 3.278239512331625471e-01
6.899136599162112304e-01 4.414920781326454602e-01 0.000000000000000000e+00
3.583510239005633924e-01 5.351868740074480213e-01 0.000000000000000000e+00
6.057158584804837043e-01 3.690041447085135040e-01 4.031439849566866851e-01
5.922989134808962497e-01 6.929245465122602088e-01 0.000000000000000000e+00
5.183392982512737834e-01 2.854471258848769732e-01 0.000000000000000000e+00
7.990705253220520277e-01 6.046046187070709399e-01 0.000000000000000000e+00
1.381252967852121261e-01 3.191454424260892209e-01 3.240915293056307878e-01
6.594878786380555802e-01 8.117791739336871482e-01 0.000000000000000000e+00
6.352288232568603643e-02 5.305293323845895470e-01 0.000000000000000000e+00
4.445554700330679454e-01 6.391077242480375231e-01 0.000000000000000000e+00
6.605610640077723694e-01 4.683254647348626953e-01 7.287652924981613545e-02
6.780962660126379493e-01 7.203290355759419672e-01 1.863634871620418743e-01
4.712204052599379134e-01 4.367531424907810100e-01 5.201401735710109442e-01
6.392135936694299803e-01 2.513632616432444067e-01 1.987901838190875292e-01
6.773880649009345056e-01 6.290438573282717272e-01 0.000000000000000000e+00
7.847109347798113532e-01 6.133581075666196814e-01 0.000000000000000000e+00
6.220001692861097942e-01 4.696944233317849049e-01 3.229164987627333172e-01
4.394200749089597346e-01 2.004652887429299035e-01 0.000000000000000000e+00
9.121677758288572191e-01 9.956924579084547311e-01 0.000000000000000000e+00
1.092863601425906328e-01 2.581950150563696589e-01 3.511318827870203441e-01
0.000000000000000000e+00 0.000000000000000000e+00 0.000000000000000000e+00
8.296221609349683224e-01 8.033277142490797829e-01 0.000000000000000000e+00
6.327979909619028120e-01 7.473883692861864603e-01 0.000000000000000000e+00
6.610688752598501416e-01 5.671839178892005284e-01 0.000000000000000000e+00
5.623615751199627644e-01 6.301875123401863288e-01 0.000000000000000000e+00
3.653060975198296756e-01 4.801701253457483221e-01 0.000000000000000000e+00
8.159555012539989605e-01 2.571181805537579024e-01 0.000000000000000000e+00
3.568704056749748554e-01 3.963162508255271277e-01 0.000000000000000000e+00
2.618973445163919056e-01 2.760578816866057217e-01 1.754170551854283833e-01
4.714198499213297922e-01 5.900643803976712842e-02 0.000000000000000000e+00
7.925854133655462208e-01 6.842066679848546329e-01 0.000000000000000000e+00
9.334771401636653421e-01 5.925253914191643823e-01 0.000000000000000000e+00
5.030429071299400423e-01 7.693072108349862104e-01 0.000000000000000000e+00
4.355659259231066116e-01 4.288272171166358504e-01 4.734412103729264132e-01
3.237366429323033090e-01 4.128844387156929141e-01 0.000000000000000000e+00
2.549673784098767104e-01 6.616131088017068729e-01 0.000000000000000000e+00
2.842786346366825700e-01 -1.354302753582925511e-02 2.886861973653923608e-01
1.084547912681823822e+00 7.632073173895395080e-01 0.000000000000000000e+00
3.388768380508522249e-01 3.264134333559880474e-01 4.400150155394606521e-01
7.600025706507693712e-01 8.494321527072639100e-01 0.000000000000000000e+00
8.344707524497718687e-02 5.730545412449837839e-01 6.805420692259356308e-02
6.859870470459216163e-01 5.007380440575702751e-01 0.000000000000000000e+00
5.648468475741098560e-01 5.196294501408765809e-01 0.000000000000000000e+00
2.064507936016186651e-01 3.180492101105245606e-01 0.000000000000000000e+00
8.288023410790151813e-01 6.318616566390691247e-01 0.000000000000000000e+00
3.418902841919837510e-01 3.757228072698146626e-01 0.000000000000000000e+00
9.291867500631559862e-01 8.836696510650319247e-01 0.000000000000000000e+00
3.965668549204259818e-01 4.449200136220976542e-01 4.722288721341405537e-01
6.569460045506809731e-01 5.224103895790195295e-01 0.000000000000000000e+00
6.507649435267268689e-01 4.735570453034387839e-01 0.000000000000000000e+00
3.410628016426056064e-01 4.928630672785493383e-01 0.000000000000000000e+00
5.725387206837329046e-01 5.330105707933896486e-01 0.000000000000000000e+00
7.466057188895837138e-01 5.361575857069283968e-01 0.000000000000000000e+00
5.088871880026489825e-01 6.778431014759418449e-01 0.000000000000000000e+00
5.725480391280768355e-01 5.178412504911581449e-01 0.000000000000000000e+00
5.682091286250640083e-01 8.475420744027239994e-02 0.000000000000000000e+00
8.828146339979634494e-01 8.060047843977825588e-01 0.000000000000000000e+00
4.034357016495042636e-01 5.929175176617514920e-01 0.000000000000000000e+00
8.006684937737644780e-01 5.411269267723634036e-01 0.000000000000000000e+00
3.492845370699987351e-01 4.144183229514275535e-01 0.000000000000000000e+00
3.987211247500817013e-01 2.842513767963974480e-01 0.000000000000000000e+00
7.077477849685740452e-01 5.627469728423680762e-01 0.000000000000000000e+00
4.126925303461479455e-01 4.033854752306853531e-01 0.000000000000000000e+00
6.800642987246131588e-01 5.814320237418292292e-01 0.000000000000000000e+00
7.498228869834937527e-01 5.936079349364981050e-01 0.000000000000000000e+00
2.003414508609282496e-01 3.849776841922090131e-01 0.000000000000000000e+00
5.087076020781040597e-01 5.078942227221167061e-01 0.000000000000000000e+00
7.467113264981098952e-01 3.411406962494236694e-01 0.000000000000000000e+00
8.313144937641565591e-01 3.606814952943075969e-01 0.000000000000000000e+00
6.994337615601250446e-01 3.917585357171784466e-01 0.000000000000000000e+00
2.892824136531824131e-01 5.545650986428248830e-01 0.000000000000000000e+00
6.605014079912547853e-01 6.432425437045797834e-01 0.000000000000000000e+00
3.218524694530677799e-01 4.001514680443438721e-01 2.639300946209111043e-01
4.507121627830346089e-01 4.705501939963150360e-01 3.925904017622046105e-01
3.476015244901298207e-01 2.771379454178699575e-01 0.000000000000000000e+00
2.896770324744603053e-01 2.327073726912770590e-01 0.000000000000000000e+00
4.145002945361691005e-01 5.327718847024933702e-01 3.385179513874884139e-01
7.259994109974018395e-01 5.711327726433131913e-01 0.000000000000000000e+00
6.685964648288096335e-01 5.026720905713207843e-01 0.000000000000000000e+00
2.385585407739686525e-01 1.628605800389201219e-01 3.410349845088097576e-01
4.762434268139883464e-01 2.781801160018273489e-01 0.000000000000000000e+00
4.392674798141467107e-01 6.244868083108748857e-01 4.755570754771589748e-01
7.276000567635537708e-01 4.082848385986757034e-01 0.000000000000000000e+00
3.591629214907736678e-01 5.370525289444870731e-01 0.000000000000000000e+00
5.889616683998721847e-01 2.585956360294978662e-01 0.000000000000000000e+00
7.082222493192853463e-01 7.840906277875387964e-01 0.000000000000000000e+00
6.436351276227118001e-01 6.870832688901714613e-01 0.000000000000000000e+00
4.487396832615242470e-01 3.406274708578225230e-01 0.000000000000000000e+00
8.926661521205775385e-01 7.647002003300293893e-01 0.000000000000000000e+00
5.870922538276931446e-01 4.843292997819415024e-01 0.000000000000000000e+00
5.813666741900933577e-01 5.751381283500209829e-01 4.835591910173158148e-01
2.865848993541690870e-01 6.074394764353248100e-01 0.000000000000000000e+00
4.032633679424564299e-01 4.550559479010797270e-01 0.000000000000000000e+00
7.651437246817662796e-01 6.298333536907382291e-01 0.000000000000000000e+00
2.628999294856704250e-01 6.856109532570955345e-01 2.206126129084930998e-01
6.450980616439347948e-01 5.115850882297967583e-01 0.000000000000000000e+00
6.697880729843959102e-01 5.841940819494629844e-01 0.000000000000000000e+00
5.734322609091814238e-01 1.463142244702759776e-01 0.000000000000000000e+00
3.903553120252054587e-01 3.132563847527540801e-01 0.000000000000000000e+00
3.793303129259540940e-01 5.381966205633056388e-01 0.000000000000000000e+00
5.232474392226510451e-01 4.677981568585107830e-01 0.000000000000000000e+00
5.332086646224618587e-01 4.531784897240510590e-01 0.000000000000000000e+00
1.337189895941600648e-01 4.367005841405148248e-01 0.000000000000000000e+00
5.020490803276217440e-01 4.924561545429094744e-01 0.000000000000000000e+00
5.045516359825875652e-01 3.335337452070896713e-01 0.000000000000000000e+00
2.041267683098997310e-01 1.622647378934338747e-01 2.859481634754312829e-01
2.724626849596141209e-01 3.391793689185214067e-01 0.000000000000000000e+00
4.088611333696752226e-01 3.368611946571240523e-01 2.387851416669504179e-01
8.200989577572950218e-01 7.857491003709005106e-01 0.000000000000000000e+00
3.045743474984536903e-01 -7.402030423229311040e-02 0.000000000000000000e+00
1.074567792080054485e+00 1.031019264915035150e+00 0.000000000000000000e+00
7.937037928656349717e-01 8.242488049207653544e-01 0.000000000000000000e+00
6.729820732620246382e-01 3.944171330807551001e-01 0.000000000000000000e+00
4.386224820273902925e-01 2.214781540689245709e-01 0.000000000000000000e+00
4.743816497046107195e-01 5.732939551006039913e-01 0.000000000000000000e+00
2.530008796933581605e-01 4.138195879206909567e-01 2.792383573986878531e-01
5.622363872811989571e-01 3.674408325061688796e-01 0.000000000000000000e+00
2.281842845803662145e-01 3.509469186252984763e-01 0.000000000000000000e+00
2.603333733892148061e-01 -1.917185654726250021e-02 3.985892639662746983e-02
6.444055997474993358e-01 4.398331505031778388e-01 0.000000000000000000e+00
2.037186973825571012e-01 4.110329456242022284e-01 0.000000000000000000e+00
5.640572740188873890e-01 4.614642160080797417e-01 0.000000000000000000e+00
8.357233289948556854e-01 7.811808435703255782e-01 0.000000000000000000e+00
5.380101837046353808e-01 3.405659101389455490e-01 2.096856212791353702e-01
5.657636919581180424e-01 8.092900035356995758e-01 0.000000000000000000e+00
2.825052056900294595e-01 4.765211283859080993e-01 0.000000000000000000e+00
9.497269007003223962e-01 4.632500222487454522e-01 3.552786888501231477e-01
8.101883550913347998e-01 8.965761709263093682e-01 0.000000000000000000e+00
7.822197216209536563e-01 5.454302815498891510e-01 0.000000000000000000e+00
7.934973443539241611e-01 5.373915637037479653e-01 0.000000000000000000e+00
4.788397045791877860e-01 5.913228255914912967e-01 0.000000000000000000e+00
4.951357813871632985e-01 6.663512936691016186e-01 3.546930525025824288e-01
5.543665810079105860e-01 3.148357061006752389e-01 0.000000000000000000e+00
4.854461648885066705e-01 5.655725185560805945e-01 0.000000000000000000e+00
5.162671116210612032e-01 2.546311276854715810e-01 0.000000000000000000e+00
2.565711870196176747e-01 4.479458365663959718e-01 2.234277624168670151e-01
2.732687568974423442e-01 2.779264472148499365e-01 0.000000000000000000e+00
5.775794420809444718e-01 4.888873390469831159e-01 0.000000000000000000e+00
4.315780943050491203e-01 6.327126609207234242e-01 0.000000000000000000e+00
2.968100422184595244e-01 5.028586974405080401e-01 0.000000000000000000e+00
6.203367503114884940e-01 5.374809422109774193e-01 0.000000000000000000e+00
5.315414681626839943e-01 4.960296019934480327e-01 5.522770689984357606e-01
2.761076700621916125e-01 5.905759122805819272e-01 0.000000000000000000e+00
5.584027480497278928e-01 7.371480586414218550e-01 0.000000000000000000e+00
4.485571671004745520e-01 2.348900087873000420e-01 0.000000000000000000e+00
1.283981897480536594e+00 9.274591017865954079e-01 0.000000000000000000e+00
3.742334631055412864e-01 7.241901120023586103e-01 0.000000000000000000e+00
8.895542325858226684e-01 5.195164839430076453e-01 0.000000000000000000e+00
6.049262898734444338e-01 4.085363351067625715e-01 0.000000000000000000e+00
8.881417089723424585e-01 1.657212871945705768e-01 4.774280110646982322e-01
7.773207512533824026e-01 7.056173381507173659e-01 0.000000000000000000e+00
1.031903432969585976e+00 7.750669900816290481e-01 0.000000000000000000e+00
8.546054111259016040e-01 2.641509025990722570e-01 0.000000000000000000e+00
1.034047714848120858e-01 5.371716798298339368e-01 0.000000000000000000e+00
4.947666797070917610e-01 4.743680673488746002e-01 0.000000000000000000e+00
1.048668409003729707e+00 8.735866566598782246e-01 0.000000000000000000e+00
8.136131128452014361e-01 7.666333929119184543e-01 0.000000000000000000e+00
4.600753529848053969e-01 5.653419654346664158e-01 0.000000000000000000e+00
5.490482337443175487e-01 6.141548605638973424e-01 0.000000000000000000e+00
4.499787893355462476e-01 -2.198647282939125702e-02 0.000000000000000000e+00
6.947068558733863197e-01 5.211019796135607507e-02 4.714288422337507001e-01
4.607752470626480523e-01 4.397038905927437291e-01 0.000000000000000000e+00
3.907086687673824166e-01 3.205235694183352635e-01 0.000000000000000000e+00
6.776951147321113034e-01 4.502689248399610600e-01 0.000000000000000000e+00
1.067445182800293102e+00 0.000000000000000000e+00 0.000000000000000000e+00
3.651423515856404567e-01 3.409283682862598308e-01 0.000000000000000000e+00
-8.171093193965623946e-01 3.620415359255177989e-01 0.000000000000000000e+00
5.759440359295829870e-01 3.242895907045530990e-01 0.000000000000000000e+00
5.191621567519323355e-01 7.827669073724222715e-01 0.000000000000000000e+00
2.265497294994895938e-01 -1.448208547802432022e-02 2.059309062788110545e-01
5.598826733552865198e-01 -7.975902261959677553e-02 6.999934946574548622e-02
9.642531459431757934e-02 1.761418087508996866e-01 3.367694169805615090e-01
3.380161473508903613e-01 4.063858812727103587e-01 0.000000000000000000e+00
3.702681501507101292e-01 4.332701931548503804e-01 6.534510395015225015e-01
4.527410217758764954e-01 4.712729172718037596e-01 3.423360372317172384e-01
4.000209286645476370e-01 1.822990760955028877e-01 4.487711628841175582e-01
3.976439264820821329e-01 1.754054114449760116e-01 0.000000000000000000e+00
5.963736953321941980e-01 6.047209387979464168e-01 0.000000000000000000e+00
7.595707218320483234e-01 3.438483104214058450e-01 0.000000000000000000e+00
5.446906664501793838e-01 3.709959873082295800e-01 0.000000000000000000e+00
1.843497187218435807e-01 5.431634691151931982e-02 1.716817001299614232e-01
4.115682463365519794e-01 4.185321915758062339e-01 2.977333985015758744e-01
3.686282567098714269e-01 5.178474726531497874e-01 0.000000000000000000e+00
-2.387897166030250595e-02 5.169701802176965844e-01 0.000000000000000000e+00
3.948476388005419668e-01 3.324176377944955130e-01 3.782606829227275202e-01
4.857676338310988884e-01 4.899026628481332191e-01 5.143374066627455221e-01
4.968715920748123516e-01 3.437084880143533860e-01 3.495845139195530304e-01
5.451813270993028926e-01 4.856144608642140037e-01 0.000000000000000000e+00
1.745782867947835992e-01 3.362172311618769616e-01 0.000000000000000000e+00
7.338100650055965346e-01 6.618885063332875518e-01 0.000000000000000000e+00
5.186862932760564204e-01 3.278358239594699741e-01 5.651842307661456566e-01
5.410543960500072691e-01 3.994325686177171431e-01 0.000000000000000000e+00
-2.591403078964475970e-01 3.312544088636770745e-02 1.290828586600010208e-01
4.915210998142668375e-01 2.081963334717580327e-01 0.000000000000000000e+00
9.171070871238727884e-01 8.352492934558818360e-01 0.000000000000000000e+00
4.712063543496693985e-01 3.367638605809948338e-01 0.000000000000000000e+00
6.518423196678019282e-01 3.010356205463866619e-01 0.000000000000000000e+00
1.110190671268442841e-01 3.021685429027036740e-01 1.332857928983011142e-01
7.570149422099623493e-01 6.041062286362411937e-01 0.000000000000000000e+00
4.687928228608226888e-01 6.670392521401780073e-05 0.000000000000000000e+00
6.145013829421397400e-02 5.109396946485559310e-01 0.000000000000000000e+00
5.918149995225874260e-01 3.914919614228129507e-01 0.000000000000000000e+00
4.464660364405308446e-01 4.879424235073952509e-01 0.000000000000000000e+00
6.102319006806211643e-01 3.159003930084920420e-01 4.088478581945644841e-01
6.348285988391967338e-01 5.800549862887527386e-01 0.000000000000000000e+00
-6.630469815518602594e-02 3.943646207739316401e-01 0.000000000000000000e+00
8.546419358785080078e-01 7.134784213110410001e-01 0.000000000000000000e+00
4.793298106643819612e-01 5.087550680534093095e-01 0.000000000000000000e+00
5.736322759291753171e-01 7.078793771448648187e-01 0.000000000000000000e+00
-6.002029589880542026e-02 7.039093834868970223e-02 5.945508395569605309e-01
6.038366070673952812e-01 3.252277523194049280e-01 1.807462819119594055e-01
5.053557189494805035e-01 7.403641645057718046e-01 0.000000000000000000e+00
6.837417328830235341e-01 4.404324171826323742e-01 0.000000000000000000e+00
7.702877986134607502e-01 7.030343641588649994e-01 0.000000000000000000e+00
3.766170294176258704e-01 9.407847377534783728e-02 1.794273406406043936e-01
6.238405151329915466e-01 4.969338676958267031e-01 0.000000000000000000e+00
3.706570060514298159e-01 4.017452003666661664e-01 0.000000000000000000e+00
2.979924994072887801e-01 2.420358758130520815e-01 0.000000000000000000e+00
3.159232620692291604e-01 5.292930059881338911e-01 0.000000000000000000e+00
1.648108892343477239e-01 4.522993105570576322e-01 0.000000000000000000e+00
3.246078303401969123e-01 2.630114882768280760e-01 3.159876898988834837e-01
5.616534846219598531e-01 4.630441890185592602e-01 2.193942623568378991e-01
5.825761972656134935e-01 6.504951371754712497e-01 0.000000000000000000e+00
6.823173032590950093e-01 6.229360003641362109e-01 0.000000000000000000e+00
6.837692914552246926e-01 6.486702532607143690e-01 3.824517887095293389e-01
2.329696457795980002e-01 6.003214945441238681e-01 0.000000000000000000e+00
5.249687922057019174e-01 1.697588762653257088e-02 0.000000000000000000e+00
3.019984041270526998e-01 6.128910294358085320e-01 3.407135933200746702e-01
5.169910341794786701e-01 2.238469032291541261e-01 0.000000000000000000e+00
5.266588016924400595e-01 5.637322279334946451e-01 0.000000000000000000e+00
6.886726128815277015e-01 8.479308939550929125e-01 0.000000000000000000e+00
6.421229854064389730e-01 5.416686253698760334e-01 0.000000000000000000e+00
6.582100430507038524e-01 7.191420102096452993e-01 0.000000000000000000e+00
2.776098477496570238e-01 5.443894661657776579e-01 2.385647254178516752e-01
4.847150384907306098e-01 3.635156062419064860e-01 0.000000000000000000e+00
3.492569997194124864e-01 5.137560928277806749e-01 0.000000000000000000e+00
4.315323874478032007e-01 2.262442974517713257e-01 4.994257523461493875e-01
5.736511835633713030e-01 6.153016971002582824e-01 0.000000000000000000e+00
5.647450206390683958e-01 2.856382445075924537e-01 0.000000000000000000e+00
5.556814302686857721e-01 5.859283273780735435e-01 0.000000000000000000e+00
5.716527225722743966e-01 4.275307629457333336e-01 2.673861566972930426e-01
3.346320892199037278e-01 6.285220370117635680e-01 0.000000000000000000e+00
9.642310689895712272e-01 9.752278607968712931e-01 0.000000000000000000e+00
4.680480539014113539e-01 6.445887806186751945e-01 0.000000000000000000e+00
4.868459004585219407e-01 7.824696492434031203e-01 0.000000000000000000e+00
3.374589055301520091e-01 7.935702047253156977e-02 3.879576510668640843e-01
7.795433385749636068e-01 6.285399187259089748e-01 0.000000000000000000e+00
9.403410175188935405e-01 8.066135495921810117e-01 0.000000000000000000e+00
3.854208515687836956e-01 5.480215591953595533e-01 0.000000000000000000e+00
9.014234673089644989e-01 4.241297506791230632e-02 4.067015951767044557e-01
5.582318915427587624e-01 5.856183500444412937e-01 0.000000000000000000e+00
3.963152266356854136e-01 4.386159563226758040e-01 0.000000000000000000e+00
2.646814529970591412e-01 3.067837112352330697e-01 3.034835330782992280e-01
5.167256148834143969e-01 7.201299560144098777e-01 1.121229651237660718e-01
4.097079378786010473e-01 5.545215599467274714e-01 0.000000000000000000e+00
5.844119738218233051e-01 5.035285190741476402e-01 0.000000000000000000e+00
4.404199169555023108e-01 7.496941350627628342e-02 9.060762299642788342e-02
4.632571978053450223e-01 4.516786922407194371e-01 4.540230014296426919e-01
6.190226523116821866e-01 7.523575645467979189e-01 0.000000000000000000e+00
3.372253615553904016e-01 3.918269625032249071e-01 7.790891220344349222e-01
2.332827420130157980e-01 5.807975598584833588e-01 0.000000000000000000e+00
6.172443849564421825e-01 5.755243378296185375e-01 0.000000000000000000e+00
5.073213146061655854e-01 6.319207531529504873e-01 0.000000000000000000e+00
4.929633098309142980e-01 4.967225949333673451e-01 0.000000000000000000e+00
7.501934144970180407e-01 8.916204873924519214e-01 0.000000000000000000e+00
1.348911767964167119e-01 6.667625927440182787e-01 2.556972262433234722e-01
5.109288271114887925e-01 3.663071617076606445e-01 2.863017920585220200e-01
4.259711950803219960e-01 2.069750109666654847e-01 0.000000000000000000e+00
5.633252910708123062e-01 3.521045094277710508e-01 0.000000000000000000e+00
7.736969483475223397e-01 5.601189313001400105e-01 1.841788574080625018e-01
4.540196521068372570e-01 5.079394012621948340e-01 0.000000000000000000e+00
3.439804722834065576e-01 4.132452357841148727e-01 3.457241797002651440e-01
1.640316695510277700e-01 2.802391506928103571e-01 0.000000000000000000e+00
5.415777916916642010e-02 1.049703995684766022e+00 0.000000000000000000e+00
4.526698087095986089e-01 3.260916598408638567e-01 0.000000000000000000e+00
2.847655054441102784e-01 2.656287141066178137e-01 4.747049669473987210e-01
