Bi24 S24 I23
1.0
  12.6111574199999996    0.0000011200000000    0.0000449000000000
   0.0000017300000000   17.1582865399999989   -0.0000025300000000
   0.0000368000000000   -0.0000015700000000   10.2820259099999998
Bi S I
24 24 23
cartesian
0 0 0
 6.33492156 -2.15680363  2.75753612
4.1835289 0.        0.       
 4.43208152 -1.65717008 -0.95248837
2.09514309 3.65975825 0.        
 8.37187501 -0.27085107 -0.41596758
1.86472653 1.9855326  2.77872563
 1.4867463   0.73758424 -2.02112559
5.86140262 3.2097081  1.24752291
 5.43006632  2.11200041 -1.48936774
-2.02442593  1.87612993  2.81597641
5.59322627 1.55766173 1.70239072
3.6765786  0.33254059 2.90697091
3.47120125 2.22670121 2.74683594
 5.48381763 -3.43079085  3.35439857
 4.98712563 -1.69176191  2.66161519
 2.96526985 -0.06015047  2.98956556
3.25692488 0.84581598 0.62014272
 2.17418618 -1.45647761  2.33920149
 4.10660636 -0.50031558  0.85119244
 2.62489018 -0.53392076  5.60147924
 3.21302977 -0.18439839  8.15454571
6.61767447 2.87317859 0.47547129
2.02660489 2.90035016 5.39785423
2.06915974 1.75913118 0.21751348
 3.7292934  -2.09141017  0.42690069
 2.97316479 -2.45449662  0.41113898
 6.33012902 -0.16033689 -2.2579573 
-1.97042372  1.85041776  0.25876668
10.25922892  1.23588672 -1.71817079
3.66347017 1.16511226 0.14250623
4.92109057 1.03583657 5.03442744
 3.77890908 -0.81032454  3.8510463 
 5.71863762 -2.97338459  5.87378095
 5.01598127  1.37915029 -1.16118994
3.26947512 0.46246758 5.46837122
 4.06567393 -1.04592711  3.35808618
2.54741571 0.52225388 0.79366842
0.78810919 1.4743249  2.37882699
2.22509645 0.73842813 0.13448589
1.69486898 2.24004364 4.08341461
5.87475185 0.95894967 2.21937594
0.00778918 0.07571167 2.58132283
 5.85324495 -0.84906469  3.00698323
4.31481865 0.10585951 2.51697434
 3.52974552  0.61085344 -0.18022218
2.07234762 3.64370794 2.57282149
7.45708967 1.9948851  0.3535353 
 1.92083915 -1.77844215  3.78844902
 0.32862642 -0.68405958  2.50386847
2.91528999 3.9119247  2.18161883
4.53510731 0.36095738 2.35645222
 5.14679322 -0.02839392  3.08979039
 2.0270021  -0.54969801  3.17818897
 2.20277414 -1.70655146  5.08405836
4.61155277 2.75137772 2.78891532
 3.52375527  2.0892426  -0.59939021
 2.02356861 -0.58121686  3.19230022
 3.65063368 -0.6518843   1.87029658
 4.1595     -1.44432256 -0.19001167
0.17748684 1.67233803 5.98318543
 0.4777484  -0.97577714 -2.06399259
4.37452251 1.64683439 5.86212232
8.29966716 2.58387951 1.0151565 
4.91040872 4.15929489 4.90706594
 2.13390326 -2.34673388  0.55993978
-0.33599855  1.5130906   2.87802316
 1.28544992  0.92010354 -1.23943028
 6.2200422  -1.39906137  1.66907405
1.75909167 2.58781056 0.44784557
4.29593549 0.57232894 6.16795374
