Bi24 S24 I23
1.0
  12.6111574199999996    0.0000011200000000    0.0000449000000000
   0.0000017300000000   17.1582865399999989   -0.0000025300000000
   0.0000368000000000   -0.0000015700000000   10.2820259099999998
Bi S I
24 24 23
cartesian
0 0 0
-0.98721357  0.3279811   5.95641808
4.1835289 0.        0.       
0.82210684 1.88126015 5.47623038
2.09514309 3.65975825 0.        
 6.62613411 -0.16504247  6.63104898
 1.86472653 -1.81925621  2.89032225
2.96885758 1.71434388 1.56487571
4.89286347 2.65702585 2.66661918
4.21939041 5.78327719 5.42562729
2.5473926  1.03308778 2.82690778
3.11696108 4.42793861 4.08506251
-0.05484684  3.67507066  3.40151494
-0.12152012  2.51644172  4.26676669
4.13450679 3.87181419 3.11764625
4.07724052 2.60651181 4.40513657
2.02285209 4.71828963 4.90112852
1.92015599 4.37658947 5.00647893
 2.25379034 -0.02036507  5.60407752
-0.62918456  3.10639898  6.45444745
4.19451776 2.42244602 5.38006993
6.34247503 8.61794713 4.64118989
0.98309247 1.95173534 5.57407704
-3.21550162  2.05744686  7.11166309
 2.06915974 -0.98857974 -1.47124598
 8.9549826  -4.74094369  3.77555965
 4.07112805  2.39898564 -1.37506514
 9.78850523 -1.50036496  3.80740664
 1.92733778  1.23933071 -1.45705326
-0.739162    3.53958659  5.8635163 
-0.10061269 -0.01397474  3.84558059
 0.90229614 -0.12737881  8.35875598
4.09893654 0.07982906 3.95441173
2.7272104  1.50942525 8.9697037 
1.9442136  3.67588471 3.88043692
 5.83848415 -0.70776967  3.99948284
2.3262148  3.96297819 6.37039541
2.05608066 1.50895031 1.40681258
7.85622528 4.72720084 3.70665282
1.81044041 1.20676212 6.43366039
-1.85982812  3.63929878  8.25381486
-0.52394374  2.69440148  1.51521338
0.00778918 0.07571167 2.58132283
-0.4739765   0.16295816  2.89556857
4.31481865 0.10585951 2.51697434
 2.35114737  1.2379448  -4.73868974
2.07234762 3.64370794 2.57282149
 4.17540067  2.11235329 -1.42402389
 1.52199719 -0.466575    1.97749098
3.94920131 3.62807341 2.89477839
 2.79403816 -0.65590651  1.98112745
1.62439565 5.14076107 4.4691618 
5.972563   3.45815634 3.60974715
 2.0270021  -2.58728952  1.92587278
 2.21066526 -1.69857175  5.08279466
5.32014002 3.15572233 2.06902493
5.21459694 2.96029913 4.82216223
3.23534542 0.55280191 1.96223692
2.64363178 0.94514375 5.1506986 
-0.19268844  3.76658011  2.28021003
 0.20047219 -0.03194982  6.33658107
4.02168159 3.7971466  2.12143788
4.39650064 0.01648212 6.19848529
1.88748956 5.52125453 3.96258317
2.26565383 3.63687359 6.27845286
 2.13390326 -1.97105759  1.3912672 
-2.1019052  -1.20929375  3.39744716
4.75592162 2.90047583 1.42872189
2.03552869 0.12485826 3.11430895
2.68576099 0.81089032 1.45632327
-0.98488361 -0.82433936  2.97652738