POSCAR from GenerativeModels
1.0
1.261115741999999962e+01 1.120000000000000076e-06 4.490000000000000040e-05
1.729999999999999953e-06 1.715828653999999887e+01 -2.529999999999999917e-06
3.680000000000000003e-05 -1.570000000000000003e-06 1.028202590999999977e+01
Bi I S
24 2 24
Direct
1.530307083739427809e-01 7.567339130859079832e-01 1.399389700766237032e-01
7.881767580535935513e-01 3.831473074248158417e-01 3.723585630358394044e-02
8.042121854386167223e-01 8.625586122824124846e-01 1.860401385196324142e-01
5.310040010262481180e-01 4.282162414258404715e-01 2.846983058897766261e-01
5.471175193960151617e-01 9.088617097374072085e-01 5.523735944144702453e-02
5.163502189495423611e-01 -8.549578389883434604e-02 4.948260153803266670e-01
5.335454616589483390e-01 3.970090315740127385e-01 7.138701784316723309e-01
2.590788005413119377e-01 -4.153252873218970381e-02 2.475101339486805718e-01
2.755107522766390149e-01 4.431505613225004137e-01 4.636109564759103296e-01
0.000000000000000000e+00 0.000000000000000000e+00 0.000000000000000000e+00
1.896754915699511504e-02 4.855362829466452479e-01 2.132344850688264182e-01
9.074488744681997732e-01 6.585613025705372436e-02 2.936102847913453773e-01
9.153409581653192406e-01 5.443529738247913086e-01 5.196548724907726902e-01
6.487795769449707928e-01 1.115469261879657586e-01 4.763531661300633713e-02
6.579234416338786140e-01 5.936807674912103483e-01 2.605309432975944084e-01
3.899834081255176832e-01 1.560217513457764493e-01 2.000781481893930680e-01
3.886089355538214218e-01 6.398471431658986353e-01 7.307837970564626251e-03
6.566948543773620806e-01 1.835229945550837793e-01 4.108772923171069014e-01
6.715983011809046888e-01 6.663373034312984888e-01 6.290782159664606299e-01
3.976837465148356232e-01 2.286950708106353092e-01 1.636587955943714090e-01
4.153339586391825433e-01 7.088888463355720315e-01 3.758819577885728624e-01
1.394691156880332183e-01 2.733762824093293187e-01 8.320496744476624240e-02
5.913883398813579717e-02 8.194385038187339543e-01 4.325486795665953732e-01
4.850788734027822180e-02 3.374780845996125933e-01 2.100997944874265222e-01
6.401302650049569554e-01 7.016663357895505104e-01 1.793628525279776856e-02
3.691691196463312563e-01 2.641258716134676776e-01 4.515339173965541297e-01
3.563068459939671140e-01 2.850561289094548645e-01 8.159621700436267555e-02
6.894216791240114217e-01 5.460946395999071584e-02 2.917805985453193474e-01
7.069570250715911941e-01 5.358209791198499383e-01 5.137441583663745481e-01
4.310932205265458061e-01 9.967576076610112912e-02 4.548712248058504881e-02
4.510125595632016315e-01 5.802128699340783902e-01 2.655683023983635427e-01
1.726565379395476885e-01 1.445111930609465911e-01 2.019759907012618760e-01
1.792337335141743204e-01 6.249359944837219460e-01 2.299529897211657209e-02
7.250904543553282622e-02 -7.000800931667043419e-08 -4.683479378352947275e-06
9.300146930859143346e-02 4.831999822235960584e-01 2.206586902101088654e-01
8.134485115779569453e-01 4.490885616825245757e-02 2.469613658452766425e-01
8.322280078388600844e-01 5.289340614733760715e-01 2.913508252166410392e-02
5.561337287494679815e-01 8.997670909899505021e-02 4.925009980335285920e-01
4.918871526892425461e-01 2.509279526645293856e-01 7.058816897051339856e-01
5.053946888085003586e-01 7.326501574732086075e-01 9.271518156391487242e-01
2.320290518160768312e-01 2.971448219542973113e-01 4.560349665217716120e-01
2.475139474596787237e-01 7.766754443561980636e-01 6.806401795561176638e-01
-2.478042617971832479e-02 3.396835167560027235e-01 2.086789713245857381e-01
-1.329622906285601869e-02 8.185306598569085379e-01 4.361309850829875323e-01
8.737169178852519646e-01 1.947758705907690069e-01 4.122415492121976333e-01
8.956077301128597679e-01 6.754104333927249959e-01 6.357223053171486837e-01
6.149183335434701414e-01 2.405616618534978934e-01 1.660201728821797396e-01
6.338668340398565526e-01 7.222015407155261135e-01 3.861371561697276023e-01
5.713200799077030601e-01 5.747568130292310951e-01 2.791545563597443436e-01
3.686837207953098106e-01 7.645195651970252415e-01 1.307023559099203813e-01
