supercell
1.0
40 0  0
0  40 0
0  0  40
Ba  Na  Si
345 715 1353
Cartesian
8.589311644369999499e+00 0.000000000000000000e+00 0.000000000000000000e+00
3.720398586433499588e+01 1.675456171298099761e+01 3.914841077437500871e+01
3.720398586433499588e+01 2.632859971298099921e+01 2.107904477437500645e+01
3.290844086433499172e+01 2.154158071298099841e+01 3.011372777437500758e+01
2.861289586433499466e+01 1.675456171298100116e+01 3.914841077437500161e+01
3.720398586433499588e+01 3.590263771298100437e+01 3.009678774374989985e+00
3.290844086433499172e+01 3.111561871298099646e+01 1.204436177437500533e+01
2.861289586433499466e+01 2.632859971298099566e+01 2.107904477437500645e+01
2.431735086433499760e+01 2.154158071298099841e+01 3.011372777437500048e+01
2.002180586433499698e+01 1.675456171298099761e+01 3.914841077437500161e+01
2.861289586433499466e+01 3.590263771298099016e+01 3.009678774375004195e+00
2.431735086433499760e+01 3.111561871298099291e+01 1.204436177437500533e+01
2.002180586433500054e+01 2.632859971298099566e+01 2.107904477437499935e+01
1.572626086433499815e+01 2.154158071298099486e+01 3.011372777437500048e+01
1.143071586433499931e+01 1.675456171298099761e+01 3.914841077437499450e+01
2.002180586433499698e+01 3.590263771298099016e+01 3.009678774375004195e+00
1.572626086433499992e+01 3.111561871298099646e+01 1.204436177437499822e+01
1.143071586433499931e+01 2.632859971298099566e+01 2.107904477437499935e+01
2.839625864335001637e+00 3.590263771298099726e+01 2.107904477437499935e+01
2.839625864335003413e+00 2.632859971298099921e+01 3.914841077437499450e+01
7.135170864335002250e+00 3.111561871298099646e+01 3.011372777437500048e+01
1.143071586433500286e+01 3.590263771298099726e+01 2.107904477437499935e+01
1.288485664436999656e+01 0.000000000000000000e+00 9.034682999999999353e+00
8.589311644369999499e+00 4.787018999999999025e+00 1.776356839400250465e-15
4.293766644369999774e+00 0.000000000000000000e+00 9.034683000000001130e+00
3.720398586433499588e+01 3.590263771298100437e+01 3.914841077437498029e+01
2.861289586433499466e+01 3.590263771298100437e+01 3.914841077437499450e+01
2.002180586433499698e+01 3.590263771298099726e+01 3.914841077437499450e+01
1.143071586433500109e+01 3.590263771298099726e+01 3.914841077437500161e+01
2.839625864335001637e+00 3.590263771298099726e+01 3.914841077437500161e+01
7.135170864335000473e+00 2.154158071298099841e+01 3.011372777437499337e+01
3.720398586433499588e+01 2.632859971298099921e+01 3.914841077437500871e+01
3.290844086433499172e+01 3.111561871298100002e+01 3.011372777437500758e+01
2.861289586433499466e+01 2.632859971298099921e+01 3.914841077437500871e+01
2.861289586433499821e+01 3.590263771298099726e+01 2.107904477437500645e+01
2.431735086433499760e+01 3.111561871298099646e+01 3.011372777437500758e+01
2.002180586433500054e+01 2.632859971298099921e+01 3.914841077437500161e+01
2.002180586433500054e+01 3.590263771298099016e+01 2.107904477437500645e+01
1.572626086433500170e+01 3.111561871298099646e+01 3.011372777437500048e+01
1.143071586433500109e+01 2.632859971298099566e+01 3.914841077437500161e+01
3.720398586433499588e+01 3.590263771298100437e+01 2.107904477437499224e+01
1.718040164436999717e+01 4.787019000000000801e+00 0.000000000000000000e+00
2.839625864335001637e+00 1.675456171298099761e+01 3.914841077437499450e+01
7.135170864334998697e+00 3.111561871298099646e+01 1.204436177437499822e+01
7.135170864334999585e+00 2.154158071298100197e+01 1.204436177437499111e+01
2.839625864335000749e+00 1.675456171298100116e+01 2.107904477437499224e+01
2.839625864334999861e+00 2.632859971298100277e+01 3.009678774374997090e+00
3.720398586433499588e+01 7.180523712981003115e+00 2.107904477437499935e+01
3.290844086433499172e+01 2.393504712981002314e+00 3.011372777437500048e+01
3.720398586433499588e+01 1.675456171298099406e+01 3.009678774375004195e+00
3.290844086433499882e+01 1.196754271298099859e+01 1.204436177437499822e+01
2.861289586433499821e+01 7.180523712980997786e+00 2.107904477437499935e+01
2.431735086433499760e+01 2.393504712981000537e+00 3.011372777437499337e+01
2.861289586433500176e+01 1.675456171298099406e+01 3.009678774374997090e+00
2.431735086433499760e+01 1.196754271298099503e+01 1.204436177437499822e+01
2.002180586433500054e+01 7.180523712980997786e+00 2.107904477437499224e+01
1.572626086433500170e+01 2.393504712980996985e+00 3.011372777437499337e+01
2.002180586433500054e+01 1.675456171298099406e+01 3.009678774375004195e+00
1.572626086433500170e+01 1.196754271298099859e+01 1.204436177437499822e+01
1.143071586433500286e+01 7.180523712980997786e+00 2.107904477437499935e+01
7.135170864335001362e+00 2.393504712980996985e+00 3.011372777437500048e+01
1.143071586433499931e+01 2.632859971298099921e+01 3.009678774374997090e+00
2.839625864335000749e+00 7.180523712980997786e+00 3.914841077437499450e+01
7.135170864335002250e+00 1.196754271298099859e+01 3.011372777437499337e+01
1.143071586433500109e+01 1.675456171298100116e+01 2.107904477437499224e+01
2.839625864334999861e+00 2.632859971298099921e+01 2.107904477437499224e+01
2.839625864334998084e+00 3.590263771298099726e+01 3.009678774375004195e+00
3.720398586433499588e+01 7.180523712981003115e+00 3.914841077437500161e+01
3.720398586433499588e+01 1.675456171298100116e+01 2.107904477437500645e+01
3.290844086433499172e+01 1.196754271298100214e+01 3.011372777437500048e+01
2.861289586433499466e+01 7.180523712981001339e+00 3.914841077437500161e+01
3.720398586433499588e+01 2.632859971298099566e+01 3.009678774375004195e+00
3.290844086433499172e+01 2.154158071298099486e+01 1.204436177437500533e+01
1.143071586433499931e+01 3.590263771298099726e+01 3.009678774374997090e+00
2.861289586433499821e+01 1.675456171298100116e+01 2.107904477437499935e+01
2.002180586433500054e+01 7.180523712981001339e+00 3.914841077437499450e+01
2.861289586433499466e+01 2.632859971298099566e+01 3.009678774375004195e+00
2.431735086433499760e+01 2.154158071298099486e+01 1.204436177437499822e+01
2.002180586433500054e+01 1.675456171298099406e+01 2.107904477437499935e+01
1.572626086433499992e+01 1.196754271298099859e+01 3.011372777437499337e+01
1.143071586433500109e+01 7.180523712980997786e+00 3.914841077437499450e+01
2.002180586433500054e+01 2.632859971298099566e+01 3.009678774374997090e+00
1.572626086433499992e+01 2.154158071298099486e+01 1.204436177437499822e+01
2.431735086433499760e+01 1.196754271298099859e+01 3.011372777437500048e+01
2.147594664436999778e+01 1.776356839400250465e-15 9.034683000000001130e+00
2.577149164436999840e+01 4.787019000000002578e+00 3.552713678800500929e-15
3.436258164436999607e+01 4.787019000000004354e+00 0.000000000000000000e+00
8.589311644370001275e+00 2.393509500000000401e+01 3.613873199999999741e+01
1.288485664437000189e+01 3.829615200000000641e+01 9.034682999999994024e+00
8.589311644370001275e+00 3.350913300000000561e+01 1.806936599999999515e+01
4.293766644370000662e+00 2.872211400000000125e+01 2.710404899999999628e+01
4.293766644370002439e+00 3.829615200000000641e+01 9.034683000000001130e+00
3.865812664437000024e+01 1.914807599999999610e+01 2.710404899999999628e+01
3.436258164437000318e+01 1.436105699999999885e+01 3.613873199999999741e+01
3.865812664437000024e+01 2.872211399999999770e+01 9.034683000000001130e+00
3.436258164437000318e+01 2.393509499999999690e+01 1.806936599999999515e+01
3.006703664436999901e+01 1.914807599999999965e+01 2.710404899999999628e+01
2.577149164437000195e+01 1.436105699999999885e+01 3.613873199999999741e+01
3.436258164436999607e+01 3.350913300000000561e+01 0.000000000000000000e+00
3.006703664436999901e+01 2.872211400000000125e+01 9.034682999999994024e+00
2.577149164437000195e+01 2.393509500000000401e+01 1.806936599999999515e+01
2.147594664436999778e+01 1.914807600000000321e+01 2.710404899999999628e+01
1.718040164437000072e+01 1.436105700000000240e+01 3.613873199999999741e+01
2.147594664437000134e+01 2.872211400000000481e+01 9.034682999999994024e+00
1.288485664437000189e+01 2.872211400000000481e+01 2.710404899999999628e+01
1.718040164437000072e+01 3.350913300000000561e+01 1.806936599999999515e+01
2.147594664437000489e+01 3.829615199999999930e+01 9.034682999999994024e+00
1.718040164437000072e+01 2.393509500000000401e+01 3.613873199999999741e+01
3.865812664437000024e+01 3.829615199999999930e+01 2.710404900000000339e+01
3.436258164436999607e+01 3.350913299999999850e+01 3.613873200000000452e+01
3.006703664436999901e+01 3.829615199999999930e+01 2.710404900000000339e+01
2.577149164437000195e+01 3.350913299999999850e+01 3.613873199999999741e+01
2.147594664437000134e+01 3.829615200000000641e+01 2.710404899999999628e+01
1.718040164437000072e+01 3.350913300000000561e+01 3.613873199999999741e+01
1.288485664437000189e+01 3.829615200000000641e+01 2.710404899999999628e+01
8.589311644370001275e+00 3.350913300000000561e+01 3.613873199999999741e+01
1.718040164437000072e+01 2.393509500000000401e+01 1.806936599999999515e+01
4.293766644370000662e+00 3.829615200000000641e+01 2.710404899999999628e+01
3.436258164437000318e+01 2.393509499999999690e+01 3.613873199999999741e+01
3.865812664437000024e+01 3.829615199999999930e+01 9.034683000000001130e+00
3.436258164436999607e+01 3.350913299999999850e+01 1.806936600000000226e+01
3.006703664437000256e+01 2.872211399999999770e+01 2.710404899999999628e+01
2.577149164437000195e+01 2.393509500000000045e+01 3.613873199999999741e+01
3.006703664436999901e+01 3.829615200000000641e+01 9.034683000000001130e+00
2.577149164437000195e+01 3.350913300000000561e+01 1.806936599999999515e+01
2.147594664437000134e+01 2.872211400000000481e+01 2.710404899999999628e+01
3.865812664437000024e+01 2.872211399999999770e+01 2.710404900000000339e+01
1.288485664437000011e+01 1.914807600000000321e+01 2.710404899999999628e+01
8.589311644369999499e+00 1.436105700000000063e+01 3.613873199999999031e+01
1.288485664437000011e+01 2.872211400000000125e+01 9.034682999999994024e+00
4.293766644369997998e+00 9.574037999999999826e+00 2.710404899999999628e+01
8.589311644369999499e+00 2.393509500000000045e+01 3.552713678800500929e-15
4.293766644369998886e+00 1.914807599999999965e+01 9.034683000000001130e+00
3.865812664437000024e+01 9.574037999999998050e+00 9.034682999999994024e+00
3.436258164436999607e+01 4.787018999999997249e+00 1.806936599999999515e+01
3.006703664436999901e+01 9.574038000000003379e+00 9.034682999999994024e+00
2.577149164436999840e+01 4.787019000000002578e+00 1.806936599999999515e+01
2.147594664436999778e+01 1.776356839400250465e-15 2.710404899999999273e+01
8.589311644369997722e+00 1.436105700000000063e+01 1.806936599999999871e+01
2.577149164437000195e+01 1.436105700000000240e+01 0.000000000000000000e+00
1.718040164437000072e+01 4.787019000000000801e+00 1.806936599999999871e+01
1.288485664437000011e+01 0.000000000000000000e+00 2.710404899999999628e+01
1.718040164437000072e+01 1.436105700000000063e+01 0.000000000000000000e+00
1.288485664436999834e+01 9.574037999999999826e+00 9.034682999999997577e+00
8.589311644369999499e+00 4.787018999999999025e+00 1.806936599999999515e+01
8.589311644369999499e+00 1.436105699999999885e+01 0.000000000000000000e+00
4.293766644369999774e+00 9.574037999999998050e+00 9.034682999999999353e+00
3.865812664437000024e+01 0.000000000000000000e+00 9.034683000000001130e+00
2.147594664436999778e+01 9.574038000000001603e+00 9.034683000000001130e+00
1.143071586433499931e+01 1.675456171298100116e+01 3.009678774374997090e+00
1.288485664436999834e+01 1.914807600000000321e+01 9.034683000000001130e+00
8.589311644369999499e+00 4.787019000000000801e+00 3.613873199999999741e+01
8.589311644369999499e+00 2.393509500000000045e+01 1.806936599999999515e+01
4.293766644369998886e+00 1.914807599999999965e+01 2.710404899999999273e+01
8.589311644370001275e+00 3.350913300000000561e+01 0.000000000000000000e+00
4.293766644370000662e+00 2.872211400000000125e+01 9.034683000000001130e+00
3.865812664437000024e+01 9.574037999999998050e+00 2.710404899999999628e+01
3.436258164436999607e+01 4.787018999999997249e+00 3.613873199999999741e+01
3.865812664437000024e+01 1.914807599999999610e+01 9.034682999999994024e+00
3.436258164436999607e+01 1.436105700000000063e+01 1.806936599999999515e+01
1.718040164437000072e+01 2.393509500000000401e+01 0.000000000000000000e+00
3.006703664436999901e+01 9.574037999999999826e+00 2.710404899999999628e+01
3.006703664436999901e+01 1.914807600000000321e+01 9.034682999999994024e+00
2.577149164436999840e+01 1.436105700000000418e+01 1.806936599999999515e+01
2.147594664436999778e+01 9.574038000000003379e+00 2.710404899999999628e+01
1.718040164436999717e+01 4.787019000000002578e+00 3.613873199999999031e+01
2.577149164437000195e+01 2.393509500000000401e+01 0.000000000000000000e+00
2.147594664436999778e+01 1.914807600000000321e+01 9.034683000000001130e+00
1.718040164437000072e+01 1.436105700000000240e+01 1.806936600000000226e+01
1.288485664436999834e+01 9.574038000000001603e+00 2.710404899999999984e+01
2.577149164436999840e+01 4.787018999999999025e+00 3.613873199999999741e+01
7.135170864335001362e+00 1.196754271298100036e+01 1.204436177437499822e+01
3.006703664436999901e+01 3.552713678800500929e-15 9.034683000000001130e+00
2.839625864335001637e+00 1.675456171298100116e+01 3.009678774374997090e+00
2.147594664436999778e+01 3.350913300000000561e+01 9.034682999999994024e+00
1.718040164437000072e+01 2.872211400000000481e+01 1.806936599999999515e+01
1.288485664436999834e+01 2.393509499999999690e+01 2.710404899999999628e+01
8.589311644369999499e+00 1.914807599999999965e+01 3.613873199999999031e+01
1.288485664436999834e+01 3.350913300000000561e+01 9.034682999999994024e+00
8.589311644369997722e+00 2.872211399999999770e+01 1.806936599999999515e+01
4.293766644369998886e+00 2.393509499999999690e+01 2.710404899999999273e+01
8.589311644369999499e+00 3.829615200000000641e+01 0.000000000000000000e+00
4.293766644369998886e+00 3.350913299999999850e+01 9.034683000000001130e+00
3.865812664437000024e+01 1.436105699999999885e+01 2.710404899999999628e+01
3.436258164436999607e+01 9.574037999999998050e+00 3.613873199999999741e+01
3.865812664437000024e+01 2.393509499999999690e+01 9.034682999999994024e+00
3.436258164436999607e+01 1.914807599999999965e+01 1.806936599999999515e+01
3.006703664436999901e+01 1.436105699999999885e+01 2.710404899999999628e+01
2.577149164436999840e+01 9.574037999999994497e+00 3.613873199999999741e+01
3.006703664436999901e+01 2.393509500000000401e+01 9.034682999999994024e+00
2.577149164436999840e+01 1.914807600000000321e+01 1.806936599999999515e+01
1.718040164436999717e+01 1.914807599999999965e+01 3.613873199999999741e+01
2.147594664436999778e+01 2.393509500000000401e+01 2.710404899999999628e+01
2.577149164436999840e+01 2.872211400000000481e+01 1.806936599999999515e+01
3.006703664436999901e+01 3.350913300000000561e+01 9.034682999999994024e+00
3.436258164436999607e+01 3.829615199999999930e+01 1.806936600000000226e+01
3.006703664436999901e+01 3.350913299999999850e+01 2.710404899999999628e+01
2.577149164436999840e+01 2.872211400000000125e+01 3.613873199999999741e+01
2.577149164436999840e+01 3.829615200000000641e+01 1.806936599999999515e+01
2.147594664436999778e+01 3.350913300000000561e+01 2.710404899999999628e+01
1.718040164436999717e+01 2.872211400000000481e+01 3.613873199999999741e+01
1.718040164437000072e+01 3.829615200000000641e+01 1.806936599999999515e+01
1.288485664436999834e+01 3.350913300000000561e+01 2.710404899999999628e+01
2.147594664436999778e+01 1.436105699999999885e+01 2.710404899999999628e+01
8.589311644369997722e+00 2.872211399999999770e+01 3.613873199999999741e+01
4.293766644369997110e+00 3.350913299999999850e+01 2.710404899999999628e+01
3.865812664437000024e+01 2.393509499999999690e+01 2.710404899999999628e+01
3.436258164436999607e+01 1.914807599999999965e+01 3.613873199999999741e+01
3.865812664437000024e+01 3.350913299999999850e+01 9.034683000000001130e+00
3.436258164436999607e+01 2.872211399999999770e+01 1.806936599999999515e+01
3.006703664436999901e+01 2.393509500000000045e+01 2.710404899999999628e+01
2.577149164436999840e+01 1.914807599999999965e+01 3.613873199999999741e+01
3.436258164436999607e+01 3.829615200000000641e+01 0.000000000000000000e+00
8.589311644369997722e+00 3.829615200000000641e+01 1.806936599999999515e+01
2.147594664436999778e+01 2.393509500000000401e+01 9.034682999999994024e+00
1.718040164437000072e+01 1.914807599999999610e+01 1.806936599999999515e+01
1.288485664437000011e+01 1.436105699999999885e+01 2.710404899999999273e+01
4.293766644369998886e+00 4.787018999999999913e+00 2.710404899999999628e+01
8.589311644369999499e+00 1.914807599999999965e+01 0.000000000000000000e+00
4.293766644369998886e+00 1.436105699999999885e+01 9.034683000000001130e+00
3.865812664437000024e+01 4.787019000000000801e+00 9.034683000000001130e+00
3.436258164436999607e+01 9.574038000000005155e+00 0.000000000000000000e+00
3.006703664436999546e+01 4.787019000000000801e+00 9.034683000000001130e+00
2.577149164436999484e+01 1.776356839400250465e-15 1.806936599999999871e+01
2.577149164436999840e+01 9.574037999999998050e+00 0.000000000000000000e+00
8.589311644369997722e+00 9.574037999999999826e+00 1.806936599999999871e+01
2.147594664436999778e+01 4.787018999999999025e+00 9.034682999999997577e+00
1.288485664436999656e+01 4.787018999999999913e+00 9.034682999999997577e+00
8.589311644369999499e+00 0.000000000000000000e+00 1.806936599999999515e+01
8.589311644369999499e+00 9.574037999999999826e+00 3.552713678800500929e-15
4.293766644369999774e+00 4.787018999999999913e+00 9.034683000000001130e+00
3.436258164436999607e+01 0.000000000000000000e+00 0.000000000000000000e+00
2.577149164436999840e+01 0.000000000000000000e+00 0.000000000000000000e+00
1.718040164436999717e+01 0.000000000000000000e+00 0.000000000000000000e+00
2.839625864334999861e+00 7.180523712980998674e+00 2.107904477437499935e+01
1.718040164437000072e+01 0.000000000000000000e+00 1.806936599999999871e+01
3.436258164436999607e+01 2.872211399999999770e+01 3.613873199999999741e+01
1.288485664436999834e+01 1.436105699999999885e+01 9.034682999999997577e+00
8.589311644369999499e+00 8.881784197001252323e-16 3.613873199999999741e+01
8.589311644369999499e+00 9.574037999999999826e+00 3.613873199999999031e+01
1.288485664436999834e+01 2.393509499999999690e+01 9.034682999999994024e+00
8.589311644369999499e+00 1.914807599999999610e+01 1.806936599999999160e+01
4.293766644369998886e+00 1.436105699999999885e+01 2.710404899999999273e+01
8.589311644369999499e+00 2.872211399999999770e+01 0.000000000000000000e+00
4.293766644370000662e+00 2.393509499999999690e+01 9.034682999999997577e+00
3.865812664437000024e+01 4.787018999999997249e+00 2.710404899999999628e+01
3.865812664437000024e+01 1.436105700000000063e+01 9.034682999999994024e+00
1.718040164436999717e+01 1.914807599999999610e+01 0.000000000000000000e+00
3.436258164436999607e+01 9.574037999999999826e+00 1.806936599999999515e+01
3.006703664436999901e+01 1.436105700000000418e+01 9.034682999999994024e+00
2.577149164436999484e+01 9.574037999999999826e+00 1.806936599999999515e+01
2.147594664436999778e+01 4.787019000000000801e+00 2.710404899999999273e+01
1.718040164436999717e+01 1.776356839400250465e-15 3.613873199999999031e+01
2.577149164436999840e+01 1.914807600000000321e+01 0.000000000000000000e+00
2.147594664436999778e+01 1.436105699999999885e+01 9.034683000000001130e+00
1.718040164437000072e+01 9.574037999999999826e+00 1.806936599999999871e+01
1.288485664436999834e+01 4.787019000000000801e+00 2.710404899999999984e+01
3.006703664436999901e+01 4.787018999999995472e+00 2.710404899999999628e+01
3.865812664437000024e+01 3.350913299999999850e+01 2.710404900000000339e+01
1.718040164437000072e+01 9.574037999999999826e+00 3.613873199999999031e+01
3.290843656878999468e+01 3.590264249999999890e+01 6.025013260308000440e+00
2.861289156878999762e+01 2.154158550000000005e+01 3.312906226030799672e+01
2.861289156878999762e+01 3.111562349999999810e+01 1.505969626030800157e+01
2.431734656878999701e+01 2.632860450000000085e+01 2.409437926030799559e+01
2.002180156878999640e+01 2.154158550000000005e+01 3.312906226030799672e+01
2.431734656879000056e+01 3.590264249999999890e+01 6.025013260308000440e+00
2.002180156878999640e+01 3.111562350000000166e+01 1.505969626030799446e+01
1.572625656878999756e+01 2.632860450000000085e+01 2.409437926030799559e+01
1.143071156879000050e+01 2.154158550000000361e+01 3.312906226030798962e+01
3.290843656878999468e+01 2.632860449999999730e+01 2.409437926030800270e+01
1.572625656878999756e+01 3.590264249999999890e+01 6.025013260307993335e+00
7.135166568789999886e+00 2.632860450000000441e+01 2.409437926030798849e+01
7.135166568789998109e+00 3.590264249999999890e+01 6.025013260308000440e+00
2.839621568790001049e+00 3.111562350000000166e+01 1.505969626030799446e+01
3.720398156878999885e+01 1.196754750000000200e+01 3.312906226030799672e+01
3.720398156878999885e+01 2.154158549999999650e+01 1.505969626030800157e+01
3.290843656878999468e+01 1.675456649999999925e+01 2.409437926030799559e+01
2.861289156878999762e+01 1.196754749999999845e+01 3.312906226030799672e+01
3.290843656878999468e+01 2.632860449999999730e+01 6.025013260308000440e+00
1.143071156878999695e+01 3.111562349999999810e+01 1.505969626030799446e+01
2.861289156878999762e+01 2.154158550000000005e+01 1.505969626030799446e+01
3.720398156878999885e+01 3.111562349999999810e+01 1.505969626030800157e+01
2.839621568789999273e+00 3.111562350000000521e+01 3.312906226030798962e+01
3.720398586433499588e+01 7.180523712980999562e+00 3.009678774374997090e+00
8.589311644370001275e+00 3.829615199999999930e+01 3.613873199999999741e+01
3.290844086433499882e+01 2.393504712980998761e+00 1.204436177437499822e+01
2.861289586433499821e+01 7.180523712980996009e+00 3.009678774375004195e+00
2.431735086433499760e+01 2.393504712980998761e+00 1.204436177437499822e+01
2.002180586433500054e+01 7.180523712980999562e+00 3.009678774374997090e+00
1.572626086433500170e+01 2.393504712980998761e+00 1.204436177437499822e+01
1.143071586433499931e+01 7.180523712981000450e+00 3.009678774374997090e+00
3.720398156878999885e+01 2.154158550000000005e+01 3.312906226030800383e+01
7.135170864334998697e+00 2.393504712980999649e+00 1.204436177437499822e+01
3.720398156878999885e+01 3.111562350000000166e+01 3.312906226030800383e+01
3.290843656878999468e+01 3.590264249999999890e+01 2.409437926030800270e+01
2.861289156878999762e+01 3.111562349999999810e+01 3.312906226030800383e+01
2.431734656878999701e+01 3.590264249999999890e+01 2.409437926030800270e+01
2.002180156878999640e+01 3.111562350000000166e+01 3.312906226030799672e+01
1.572625656878999756e+01 3.590264249999999890e+01 2.409437926030799559e+01
1.143071156878999695e+01 3.111562350000000166e+01 3.312906226030799672e+01
7.135166568789996333e+00 3.590264249999999890e+01 2.409437926030799559e+01
2.839625864334999417e+00 7.180523712980999562e+00 3.009678774375000643e+00
2.431734656878999346e+01 1.675456649999999925e+01 2.409437926030799559e+01
2.839621568789999273e+00 2.154158550000000361e+01 3.312906226030798962e+01
2.002180156878999640e+01 1.196754750000000200e+01 3.312906226030798962e+01
1.143071156878999872e+01 2.393509500000003065e+00 3.312906226030799672e+01
1.572625656878999756e+01 1.675456650000000280e+01 6.025013260307993335e+00
1.143071156878999695e+01 1.196754750000000200e+01 1.505969626030799446e+01
7.135166568789998109e+00 7.180528500000002090e+00 2.409437926030799559e+01
2.839621568789997497e+00 2.393509500000001289e+00 3.312906226030799672e+01
7.135166568789998998e+00 1.675456650000000280e+01 6.025013260308000440e+00
3.720398156878999885e+01 2.393509499999996848e+00 1.505969626030800157e+01
3.290843656878999468e+01 7.180528499999997649e+00 6.025013260308000440e+00
1.572625656878999756e+01 7.180528500000002978e+00 2.409437926030799559e+01
2.861289156878999762e+01 2.393509500000000401e+00 1.505969626030799446e+01
2.002180156878999640e+01 2.393509500000000401e+00 1.505969626030799446e+01
1.572625656878999756e+01 7.180528500000000314e+00 6.025013260307993335e+00
1.143071156878999872e+01 2.393509500000000401e+00 1.505969626030799269e+01
7.135166568790000774e+00 7.180528500000000314e+00 6.025013260307998664e+00
2.839621568790000161e+00 2.393509499999999512e+00 1.505969626030799979e+01
3.436258164437000318e+01 3.829615199999999220e+01 3.613873199999999031e+01
2.577149164437000195e+01 3.829615199999999220e+01 3.613873199999998320e+01
1.718040164437000072e+01 3.829615200000000641e+01 3.613873199999998320e+01
2.431734656879000056e+01 7.180528500000001202e+00 6.025013260307993335e+00
2.002180156878999640e+01 1.196754750000000378e+01 1.505969626030799446e+01
2.839621568790000161e+00 1.196754750000000200e+01 1.505969626030799979e+01
2.002180156878999640e+01 2.393509500000002177e+00 3.312906226030798962e+01
2.431734656878999701e+01 2.632860450000000085e+01 6.025013260308000440e+00
2.431734656878999346e+01 1.675456650000000280e+01 6.025013260308000440e+00
1.572625656878999933e+01 1.675456650000000280e+01 2.409437926030799559e+01
1.143071156878999872e+01 1.196754750000000200e+01 3.312906226030799672e+01
1.572625656878999578e+01 2.632860449999999730e+01 6.025013260308000440e+00
1.143071156878999872e+01 2.154158550000000361e+01 1.505969626030799446e+01
7.135166568789998109e+00 1.675456650000000280e+01 2.409437926030799559e+01
2.839621568789999273e+00 1.196754750000000200e+01 3.312906226030799672e+01
7.135166568790001662e+00 2.632860450000000085e+01 6.025013260308000440e+00
2.002180156878999640e+01 2.154158550000000005e+01 1.505969626030800157e+01
3.720398156878999885e+01 2.393509500000003953e+00 3.312906226030799672e+01
2.839621568790001049e+00 2.154158550000000005e+01 1.505969626030800157e+01
2.861289156878999407e+01 1.196754750000000023e+01 1.505969626030799446e+01
3.290843656878999468e+01 1.675456650000000280e+01 6.025013260307993335e+00
2.861289156878999762e+01 2.393509500000002177e+00 3.312906226030798962e+01
2.431734656878999701e+01 7.180528500000002978e+00 2.409437926030798849e+01
3.720398156878999885e+01 1.196754750000000023e+01 1.505969626030799446e+01
3.290843656878999468e+01 7.180528499999999426e+00 2.409437926030799559e+01
3.156550315326000344e+01 2.154158550000000005e+01 3.847401686184000624e+01
1.867886815326000161e+01 3.590264249999999890e+01 2.943933386183999090e+01
3.586104815326000050e+01 2.632860450000000085e+01 2.943933386184000511e+01
1.496688153259999154e+00 3.590264249999999890e+01 2.943933386183999090e+01
5.792233153259999767e+00 3.111562350000000521e+01 3.847401686183999203e+01
1.008777815326000038e+01 3.590264250000000601e+01 2.943933386183999090e+01
3.586104815326000050e+01 3.590264249999999890e+01 1.136996786184000996e+01
1.438332315326000099e+01 3.111562350000000521e+01 3.847401686183999203e+01
2.297441315326000222e+01 3.111562349999999810e+01 3.847401686183999203e+01
1.496688153259999599e+00 2.393509499999999957e+00 6.699398138159997629e+00
3.156550315325999989e+01 3.111562350000000166e+01 3.847401686183999203e+01
3.586104815326000050e+01 3.590264249999999890e+01 2.943933386183999801e+01
1.008777815325999860e+01 2.393509500000001289e+00 6.699398138159995852e+00
1.867886815325999805e+01 2.393509500000000401e+00 6.699398138159995852e+00
3.586104815325999340e+01 2.393509500000000401e+00 6.699398138159999405e+00
2.726995815325999928e+01 2.393509500000000401e+00 6.699398138159995852e+00
3.156550315325999989e+01 3.111562349999999810e+01 2.040465086184000398e+01
1.496688153260000931e+00 1.196754750000000023e+01 6.699398138159999405e+00
2.726995815325999928e+01 3.590264249999999890e+01 2.943933386183999090e+01
2.726995815326000283e+01 2.632860449999999730e+01 2.943933386184000511e+01
3.156550315325999634e+01 2.632860449999999730e+01 1.573408113815998632e+01
2.726995815325999928e+01 3.590264249999999890e+01 1.136996786184000285e+01
3.156550315325999634e+01 3.111562350000000166e+01 2.335284861840001724e+00
1.496688153259999154e+00 2.393509500000000401e+00 2.476876413815999811e+01
2.297441315326000222e+01 1.196754749999999845e+01 3.847401686184000624e+01
2.726995815325999928e+01 1.675456649999999925e+01 2.943933386184000511e+01
3.156550315326000344e+01 2.154158549999999650e+01 2.040465086184000398e+01
3.586104815326000050e+01 2.632860449999999730e+01 1.136996786184000285e+01
3.156550315326000344e+01 1.196754750000000200e+01 3.847401686184000624e+01
3.586104815326000050e+01 1.675456649999999925e+01 2.943933386184000511e+01
1.496688153260000931e+00 3.590264249999999890e+01 1.136996786184000285e+01
1.496688153260000931e+00 2.632860450000000441e+01 2.943933386184000156e+01
5.792233153259999767e+00 3.111562350000000521e+01 2.040465086184000398e+01
1.008777815326000038e+01 3.590264250000000601e+01 1.136996786184000285e+01
5.792233153260001544e+00 2.154158550000000361e+01 3.847401686183999914e+01
1.008777815326000038e+01 2.632860450000000441e+01 2.943933386184000511e+01
1.438332315326000099e+01 3.111562350000000521e+01 2.040465086184000398e+01
1.867886815326000161e+01 3.590264249999999890e+01 1.136996786184000285e+01
1.438332315326000099e+01 2.154158550000000361e+01 3.847401686184000624e+01
1.867886815326000161e+01 2.632860450000000441e+01 2.943933386184000511e+01
2.297441315326000222e+01 3.111562350000000166e+01 2.040465086184000398e+01
2.297441315326000222e+01 2.154158550000000005e+01 3.847401686184000624e+01
5.792233153259999767e+00 7.180528500000001202e+00 1.573408113815999698e+01
2.726995815325999928e+01 2.154158549999999650e+01 2.476876413815998745e+01
1.008777815326000038e+01 2.393509500000002177e+00 2.476876413815999456e+01
2.726995815325999573e+01 1.196754750000000023e+01 2.476876413816000166e+01
3.156550315325999634e+01 1.675456649999999570e+01 1.573408113816000053e+01
3.586104815326000050e+01 2.154158549999999650e+01 6.699398138159999405e+00
3.156550315325999634e+01 7.180528500000002978e+00 3.380344713815998858e+01
3.586104815326000050e+01 1.196754750000000023e+01 2.476876413815998745e+01
1.496688153260000931e+00 3.111562349999999810e+01 6.699398138159995852e+00
1.496688153260000931e+00 2.154158549999999650e+01 2.476876413815998745e+01
1.008777815325999860e+01 3.111562349999999810e+01 6.699398138159992300e+00
2.297441315325999511e+01 7.180528499999999426e+00 3.380344713815999569e+01