Bi24 S24 I23
1.0
  12.6111574199999996    0.0000011200000000    0.0000449000000000
   0.0000017300000000   17.1582865399999989   -0.0000025300000000
   0.0000368000000000   -0.0000015700000000   10.2820259099999998
Bi S I
24 24 23
direct
0 0 0
8.606804 0 0
0.0786160728500923 4.182790165840319 0
8.604196512179348 4.198015030069471 0.10667069670511106
3.0706270511174445 2.1512771163133357 7.5107882118199525
5.510652766999476 2.0914055244469574 7.5347554881796315
2.277155746319634 1.8222564325651684 2.5758113491306602
6.394913163609171 1.9367583024023343 2.614619270558854
2.2388282478990673 6.26174314051574 2.384373636559819
6.412643018046687 6.144563690018191 2.864416523636099
2.2656660314161825 -2.0588526096422046 2.4851097292391335
6.3917064563570305 -2.348619457303764 2.2617092359866895
4.316644172419615 -0.06783588528337633 2.537998778826176
4.229311146843505 -0.1934635452214272 2.574498616568285
4.266878652411348 4.127607797958813 2.6774013241540033
4.294987751828163 4.005133595698196 2.8984611882402658
4.279157757877182 8.348709233841841 2.8172297502193615
4.319540937165159 8.193503580825007 3.211865890177834
2.170991988023945 2.213384317907311 5.0919827298652045
6.500869817694068 2.2215221626294683 5.13436440937759
6.4120085310423764 -2.4585593106866015 4.878819789536242
4.7129544540722 5.444305131824148 4.341252821182347
2.162387672663717 -2.056518442433835 5.156225647109836
6.501213846032317 -2.1143934243351112 5.177683911740966
-0.157455725660774 2.072484584647451 1.7616163103420501
8.354943038843285 2.137629831946623 1.6986584610940518
6.379015149038634 -1.3567619645983877 0.9988029373873354
3.0265937361166126 -5.680108283613473 1.1880775884196084
-0.21441228632064707 -2.300355932349095 1.4268726973019792
8.350375717749193 -2.109525021637968 1.7499175518505368
1.8052180746260065 -0.13455976357648133 3.3943909081924475
6.751605466326152 -0.08591772320865326 3.3380886238993264
1.8581672857481537 4.064735972145123 3.531311561744145
6.712581170016201 4.094480957335861 3.452173501483753
4.949581292663025 2.0948038788870065 7.519740108572113
3.618757648378095 1.994656204891412 7.541211574167708
4.052688964751764 2.2092012138944184 5.902571373422789
4.584769384845732 2.106442210801022 5.883072836467448
4.059638207626252 6.456534696217553 5.787866946478989
4.586423200797818 6.288775345797375 5.893599450310266
4.051774691858194 -2.1214547563421045 5.920330742063099
4.581118463612451 -2.195392268882982 5.850500534086987
2.493097643113881 -0.039067527725021346 0.6722784635176068
6.126384377119289 -0.19825739261045514 0.6030825999619588
2.4995520108696816 4.268601305684341 0.7037817050106027
6.137386995874034 4.00580134614725 1.4194709731253157
5.597638436060974 2.0639685934227083 6.507401645044774
3.0611117058202524 1.922334417774002 6.527461048278934
7.495068145560531 -0.1551055762873931 4.636734285337406
1.1228137866782204 4.294883402197746 4.527102186790044
7.521773213818397 4.042016385733527 4.748530688119109
4.332185607009821 8.570101216001044 1.7817173390889336
4.435772075058481 1.9679749271680493 8.4829113531185
3.181161682354761 1.967569760451307 0.7215747656040699
5.37873869678914 2.109961611794648 0.47351918311410673
3.232058827211109 6.174415611503065 1.2730119014519163
5.391388928470628 6.288337368485793 0.64871904057893
3.187389049824792 -2.1070559854984263 0.15585179069060853
5.447403246913539 -2.148884547371209 0.3462295151245415
3.246334638890836 -0.04443361274996679 2.9804277235231487
5.434616931104135 0.0753735899236288 3.014296337057124
3.2307975473525588 4.164013370079162 3.001402158663254
5.400267420622946 4.273527631707682 2.9740262277150418
6.313759130529452 2.1109018754259337 6.760433380401684
2.333974174827746 2.198223458540745 6.783099031724518
1.1288095920972456 2.113064013392581 2.1529015222910104
7.445304117592372 1.777911984745194 2.3757169038814183
6.363696809259092 1.4728448407004515 1.9644937415733081
3.6322891432646642 0.7579563705300663 5.6182961124120565
1.0778921619288482 -2.3100825280335897 1.8690639036532024
7.418160967095771 -2.0966247874063906 2.0973528479857424