POSCAR from GenerativeModels
1.0
2.000000000000000000e+01 0.000000000000000000e+00 0.000000000000000000e+00
0.000000000000000000e+00 2.000000000000000000e+01 0.000000000000000000e+00
0.000000000000000000e+00 0.000000000000000000e+00 2.000000000000000000e+01
Ag Al As B Ba Be Br C Ca Cd Cl Co Cr Cu Dy Er F Fe Ga Gd Ge H I In K Kr La Li Mg Mn Mo N Na Nb Nd Ni O P Pd Rb Rh Ru S Sb Sc Se Si Sm Sn Sr Ta Tc Te Ti V Xe Y Yb Zn Zr
2 6 14 7 5 10 10 17 23 15 21 8 15 15 1 1 14 6 8 2 15 118 1 2 8 31 2 5 30 20 10 6 7 5 1 23 21 5 9 8 2 9 28 3 19 37 24 2 6 6 2 4 11 15 32 2 3 3 26 14
Direct
2.257463592887922754e-01 5.067263602504098463e-01 0.000000000000000000e+00
5.802034838294064523e-01 4.044442562228410809e-01 0.000000000000000000e+00
6.780634886635198422e-01 4.090465212497240710e-01 0.000000000000000000e+00
4.406295248664562347e-01 4.138612740626292918e-01 0.000000000000000000e+00
5.814572736585890134e-01 2.302243591723722727e-01 0.000000000000000000e+00
1.158707622341488941e+00 6.867120729781935884e-01 0.000000000000000000e+00
6.074278197790927702e-01 6.148490751707507140e-01 2.781984743940908444e-01
4.631430086219303632e-01 3.233474735281226531e-01 0.000000000000000000e+00
5.979557131388697488e-01 2.524119748595556878e-01 0.000000000000000000e+00
6.107150203366504826e-01 4.675140419802268354e-01 0.000000000000000000e+00
2.639946895054363640e-01 2.999204089083871150e-01 2.235062541080208298e-01
1.014246153922654159e+00 5.914295443635949612e-01 0.000000000000000000e+00
7.625016122281075281e-01 5.789487503812967839e-01 2.481302481605409671e-01
5.104425633212400504e-01 3.662504251792124688e-01 2.654463927155414904e-01
4.328221910545564377e-01 4.404017835892253263e-01 0.000000000000000000e+00
3.942642399142763932e-01 4.970609251341668866e-01 0.000000000000000000e+00
5.170785206863479644e-01 4.359416946817875615e-01 5.825658872742147665e-01
2.893420782159132898e-01 -1.099794721200590963e-01 2.924279231033072302e-01
7.733089700871857985e-01 3.229018111383912260e-01 1.787974700267591643e-01
8.083689251575848500e-01 5.038438734108461325e-01 0.000000000000000000e+00
5.781445793875665817e-01 2.103775157774230298e-01 0.000000000000000000e+00
6.882818318541443769e-01 4.482168738136835806e-01 2.960650887894324956e-01
5.233429415711133847e-01 2.239764602490115220e-01 0.000000000000000000e+00
1.248664928599849233e+00 6.695566171342525186e-01 0.000000000000000000e+00
4.185564644219113006e-01 4.150612309194450233e-01 2.791248378599178182e-01
7.832311084348595465e-01 3.947186900800083720e-01 0.000000000000000000e+00
5.379901236944261145e-01 2.888797153795648054e-01 0.000000000000000000e+00
8.022707343285007120e-01 1.779358321192079373e-01 3.243306398322164386e-01
8.438845254856899292e-01 8.691369586332277075e-01 0.000000000000000000e+00
6.726828183332426159e-01 1.636862401365538622e-01 2.286262217796571905e-01
8.464059440637298204e-01 5.267798329898405463e-01 4.967919296163223475e-01
6.269801087352665503e-01 -7.222962451508507797e-02 3.141226810856738716e-01
2.411530943345163713e-01 4.634233546458568220e-01 0.000000000000000000e+00
9.878130006178219569e-01 9.584989995651893580e-02 5.289875694619382562e-01
1.153540931124312996e+00 3.987151032146064589e-01 0.000000000000000000e+00
4.791015300805292476e-01 1.640060666857108274e-01 0.000000000000000000e+00
3.849152696500366400e-01 4.729162294135036415e-01 0.000000000000000000e+00
1.748949478516620415e-01 5.487529761996052802e-01 2.038665603851373964e-01
5.303535708564556250e-01 2.841833601727721259e-01 0.000000000000000000e+00
6.199125337916452372e-01 -1.062459661175072512e-01 2.493655816914338574e-01
8.020386894815662027e-01 1.816099182409354196e-01 5.176863817318991812e-01
4.108435390067579629e-01 2.066589797889877289e-01 0.000000000000000000e+00
6.748264969396031709e-01 3.986772793521008440e-01 2.819111623653657306e-01
2.946652363733537339e-01 2.128280297530533716e-01 0.000000000000000000e+00
1.001933560801182121e+00 -1.231944340214474742e-02 3.746280224729325870e-01
7.674932145558166496e-01 4.928429156038716119e-01 0.000000000000000000e+00
4.337466203481352700e-01 1.682175389498976603e-01 3.057279143399299626e-01
4.816838025098146847e-01 4.871759973034957003e-01 4.123662421679090695e-01
6.606740400175744599e-01 -3.931564019383659847e-02 2.549146734162668348e-01
8.317745548073519624e-01 5.930822260960066927e-01 0.000000000000000000e+00
5.172021982099503923e-01 1.868559453910705326e-01 0.000000000000000000e+00
7.077144813353086761e-01 3.751386391038254997e-01 1.827110633567157194e-01
5.236899696457453235e-01 1.750160931421066435e-01 2.786688999838475844e-01
7.984981946895591820e-01 2.648207155954527270e-01 3.664589601779162376e-01
7.204002705112239058e-01 3.929368975820454191e-01 3.308753096747218958e-01
6.766292253568814141e-01 2.246557767882372270e-01 5.214033475962127628e-01
4.539670406927858171e-01 2.192530430355019710e-01 3.246660258544481481e-01
4.187959377670971151e-01 4.510996783134031407e-01 0.000000000000000000e+00
4.740070136424023861e-01 7.894795702429080464e-02 1.637486337055316099e-01
5.582808889646438955e-01 -1.102616624973637993e-01 0.000000000000000000e+00
5.666572983418910470e-01 4.820045857147068347e-01 0.000000000000000000e+00
8.408676299882604788e-01 8.413065463623820017e-01 0.000000000000000000e+00
5.018906314808663227e-01 4.716149259808883887e-01 0.000000000000000000e+00
5.148500298938955000e-01 4.283868945083924018e-01 0.000000000000000000e+00
8.132072124288927117e-01 4.262222173124092794e-01 0.000000000000000000e+00
7.293060048478356983e-01 -1.620693352809465804e-01 7.256115406606792329e-01
3.230691541136081479e-01 3.260764927479808950e-01 1.990247835372375151e-01
7.978033677426632497e-01 3.644437015662020940e-01 0.000000000000000000e+00
5.241167534817910978e-01 3.830363163922883007e-01 2.054262538133508897e-01
6.864153438338758129e-01 5.198870192601875440e-01 1.885085306419079787e-01
2.163725846533371966e-01 1.046394078290732166e-01 2.471228864683978621e-01
5.665151473783262004e-01 3.708995182237677657e-01 0.000000000000000000e+00
7.660149377483715938e-01 2.125471935489791075e-01 6.264100390013721542e-01
4.332427045537621257e-01 5.441056142755769098e-01 0.000000000000000000e+00
4.194640993666984841e-01 2.486803145486636835e-01 7.514232755451076828e-01
7.612033693339527174e-01 8.314201965332901345e-01 0.000000000000000000e+00
6.181806788508759087e-02 3.354546445243639097e-01 0.000000000000000000e+00
4.367446789138442753e-01 2.866334720134703362e-01 0.000000000000000000e+00
2.317956654625114021e-01 5.490416696403198626e-01 0.000000000000000000e+00
5.056172593314854913e-01 2.530404655150949589e-01 0.000000000000000000e+00
9.653773264336328319e-01 3.273673128388672193e-01 3.109289302277122857e-01
7.696927391277134101e-01 5.424666726881476331e-01 0.000000000000000000e+00
2.799556899100474894e-01 5.202943680709094521e-01 0.000000000000000000e+00
8.307953471973021919e-01 1.730356941274393545e-01 4.858256950337080937e-01
6.828912825075696968e-01 6.483116181148840251e-02 0.000000000000000000e+00
7.459962988123103322e-01 -1.213357456404642321e-01 3.660617517357221962e-01
2.472042453463251244e-01 3.612207720493554319e-01 3.036836842902583822e-01
6.142245302112732119e-01 3.630363419729265573e-01 0.000000000000000000e+00
4.471823290999030753e-01 4.208624224994076402e-01 2.780756935194437229e-01
4.902796350725615593e-01 1.372913982907941755e-01 4.235321476229789717e-01
1.784468780343478889e-01 1.844593741323911074e-01 0.000000000000000000e+00
4.356173982113876741e-01 1.239590389286145955e-01 0.000000000000000000e+00
9.507645473077885878e-02 4.428159519152545798e-01 0.000000000000000000e+00
2.345747131450424128e-01 5.910653028861384550e-01 3.255900543706444772e-01
4.415663457032223960e-01 3.618084672882477815e-01 0.000000000000000000e+00
7.969145637504478907e-01 7.406487348080346145e-01 0.000000000000000000e+00
1.764639418531744885e-01 4.655088938341980231e-01 0.000000000000000000e+00
3.368538456152321281e-01 5.425421977760634951e-01 0.000000000000000000e+00
6.240278588080830913e-01 5.080613209241076067e-01 2.695834107418420000e-01
5.431267669761082884e-01 5.166910777857132153e-01 0.000000000000000000e+00
6.773580361272960593e-01 2.140867995595983064e-01 5.417065172094023273e-01
6.570585938373569856e-01 1.028594511976310688e-01 0.000000000000000000e+00
3.407618980881810256e-01 3.444403622035635548e-01 4.062135535952053900e-01
3.966362459756935799e-01 3.650448412309195145e-01 0.000000000000000000e+00
5.215679112838781384e-01 2.248643442796671721e-01 4.392514579823780796e-01
7.896107170075609138e-01 5.472263426903473116e-01 4.013939421139787189e-01
4.611394246964168886e-01 -8.445757037733270245e-02 3.371653729569319413e-01
7.000418935988975688e-01 5.788849355108744987e-01 1.800555813950883710e-01
6.034937572747874901e-01 1.426479326730649699e-01 3.221465664219511638e-01
5.098181978372715584e-01 5.550893018536096069e-02 3.721627150675532736e-01
4.942500592208830534e-01 -1.637920257356673126e-01 0.000000000000000000e+00
3.591020228357650890e-01 2.380850981221750429e-01 0.000000000000000000e+00
5.471937246417599710e-01 5.349088617294078807e-01 2.385045440958247775e-01
4.511091293689530879e-01 3.491687024875087531e-01 2.199196608308361389e-01
6.655467576310064581e-01 2.172160798700446538e-01 2.467459923679845568e-01
6.411170462609949716e-01 4.047953988124990410e-01 0.000000000000000000e+00
8.873354876899450794e-01 7.898664029372394202e-01 0.000000000000000000e+00
5.424322608495679710e-01 3.093431171978600069e-01 1.311726388265073151e-01
6.846256498702092408e-01 2.328935239167020388e-01 0.000000000000000000e+00
6.999141379734636903e-01 1.975113631121199198e-01 4.936120759477328201e-01
3.546971880575726654e-01 2.073976419033700669e-01 0.000000000000000000e+00
4.609324736511148934e-01 -1.019469472008260880e-02 0.000000000000000000e+00
1.676421717391939348e-01 4.608339559871318381e-01 0.000000000000000000e+00
3.448177137009516002e-01 3.407278310525754250e-01 2.551699901738532228e-01
4.925607265096392240e-01 2.852053852707542303e-01 0.000000000000000000e+00
5.715137687529843191e-01 3.202437268415379013e-01 0.000000000000000000e+00
1.992050375858245292e-01 3.431959231166805679e-01 0.000000000000000000e+00
6.517470258321065302e-01 5.855006628185948081e-01 1.867695999753259395e-01
7.157383636223947354e-01 3.447377492708756375e-01 2.013439848383358211e-01
7.577784310272345225e-01 6.105571682900057251e-02 3.280880134010348836e-01
4.867304279013608959e-01 3.939927619840952744e-01 0.000000000000000000e+00
4.736007470243033257e-01 5.633766103611592690e-01 4.887852727391819307e-01
9.343750515476595409e-01 1.933641395723794121e-01 4.860088980876164921e-01
2.084597196521650320e-01 4.689360807541436138e-01 0.000000000000000000e+00
5.992176485663932572e-01 4.795162601387322754e-01 3.217017096919867480e-01
6.239816621274374420e-01 5.245368705064777926e-01 3.789133747275189590e-01
4.730165261893338746e-01 2.883601534790052323e-01 4.566398171092422853e-01
1.060251499460220570e+00 7.219794298439499158e-01 0.000000000000000000e+00
5.356260857956737231e-01 3.671236493024507830e-01 1.542996315506041105e-01
5.558311457583092752e-01 4.999272944754952208e-01 0.000000000000000000e+00
5.600463219315807706e-01 6.118570017966068475e-01 2.863371995326792208e-01
4.209467186858102394e-01 5.163537061795467897e-01 3.381621177161635572e-01
7.774893109739908770e-01 3.101475376951601248e-01 0.000000000000000000e+00
5.107410339575787495e-01 1.806659301981980992e-01 1.735357971682405243e-01
5.737121489623827619e-01 1.021239238729040322e-01 0.000000000000000000e+00
4.332208895280760252e-01 5.707292617782924182e-01 0.000000000000000000e+00
8.634796822212351675e-01 6.253026964281162003e-01 0.000000000000000000e+00
1.560057014237117290e-01 5.130915458909179883e-02 7.841397181219362800e-01
8.976920925173056398e-01 5.872161851999188054e-01 0.000000000000000000e+00
7.866779355103492577e-02 4.455785444811366514e-01 3.309654765872115378e-01
5.281161015200143138e-01 5.217027374991832778e-01 2.857377006895516214e-01
4.457861690036521995e-01 2.856046245882921664e-01 2.797184678969155680e-01
3.630030575125102743e-01 1.891428522456964911e-01 1.853082998869447495e-01
8.416672433733579650e-01 6.281995074292514580e-01 0.000000000000000000e+00
1.299222830077201518e+00 9.238211057588894271e-01 0.000000000000000000e+00
3.506724854937690594e-01 9.890406924698991187e-02 0.000000000000000000e+00
3.856059396631003056e-01 -4.185762262571324221e-02 0.000000000000000000e+00
4.178604074796519185e-01 7.639083122779856128e-01 3.808549192718665433e-01
3.915585410261137600e-01 4.132841312126314115e-01 4.590913062484867080e-01
3.787460903775285992e-01 6.215541173919727491e-01 6.880978508845569941e-02
9.585980975337968779e-01 4.526657431961346179e-01 0.000000000000000000e+00
4.929384223014283695e-01 5.398814081007505816e-01 0.000000000000000000e+00
3.838789509777227327e-01 3.250868755513074415e-01 0.000000000000000000e+00
7.758977021248368855e-01 5.102335165435872844e-01 0.000000000000000000e+00
5.057888628668862907e-01 2.229801874414951701e-01 2.847717463631733725e-01
5.942781358265513125e-01 2.876992086994766273e-01 0.000000000000000000e+00
5.737244006336484903e-01 1.173906854803572486e-01 2.471842875448345689e-01
7.106976125897365160e-01 4.308049960476243445e-01 0.000000000000000000e+00
4.414806190109390460e-01 7.941529617629372595e-02 3.474088348915627122e-02
6.759420204556473299e-01 6.477905640820034172e-01 0.000000000000000000e+00
6.964303058853440476e-01 4.983885701629797715e-01 0.000000000000000000e+00
3.001180035786673583e-01 5.537993411027624102e-01 0.000000000000000000e+00
5.368742693472666749e-01 6.564806408931400661e-02 0.000000000000000000e+00
5.807265008114265159e-01 3.657786046207587294e-01 0.000000000000000000e+00
8.646594443890051052e-01 7.295747048604391827e-01 1.673970439997334303e-01
3.690933898504401567e-01 1.144832149852315073e-01 0.000000000000000000e+00
1.820675214233664629e-01 1.986607024235245156e-01 1.707649283656771377e-01
4.990655170501538951e-01 4.850089695580350746e-01 1.698604194145538759e-01
-9.253639301981109178e-02 4.702760632126398166e-01 0.000000000000000000e+00
5.597363752158659445e-01 5.153294001905761590e-01 0.000000000000000000e+00
4.201748454141208677e-01 1.911808879289587093e-01 3.209643340821253243e-01
2.784849689041690723e-01 5.561637086293930166e-01 0.000000000000000000e+00
5.940876201915926691e-01 5.670148949563594831e-01 0.000000000000000000e+00
4.088070368579590497e-01 4.732082749806929556e-01 0.000000000000000000e+00
4.780098162517628646e-01 3.156803856834299316e-01 0.000000000000000000e+00
1.237210209819702422e-01 3.138196002931923356e-01 0.000000000000000000e+00
6.131342608891903190e-01 5.101600176256982921e-01 5.529868301988123402e-01
6.664833934409181149e-01 5.268065251612719102e-01 0.000000000000000000e+00
6.626983140807998218e-01 6.799544706297000474e-01 0.000000000000000000e+00
6.025490703526235059e-01 2.161083132349448377e-01 0.000000000000000000e+00
4.312790927875990166e-01 2.939568158538504727e-01 0.000000000000000000e+00
4.437308398869734827e-01 4.995530782375430245e-01 0.000000000000000000e+00
4.275193884094137253e-01 5.782055623364891206e-01 6.757440769572513606e-01
7.024240258575650264e-01 6.177009107535181842e-01 0.000000000000000000e+00
5.419161275830632896e-01 3.753154185532439069e-01 0.000000000000000000e+00
7.851378710846548259e-01 -5.863412330045791876e-02 4.806842865860918579e-01
7.243559516522805053e-01 4.160090234077169491e-01 0.000000000000000000e+00
1.552536979427849850e-01 3.929511082640673170e-01 4.962272834970373747e-01
5.362372987990048356e-01 5.335423438932385132e-01 0.000000000000000000e+00
9.008664844556272255e-01 6.215964045297542873e-01 0.000000000000000000e+00
6.194928208855332574e-01 7.227953297015277112e-02 2.759625511477314941e-01
7.068629821063348029e-01 5.877034600182514668e-01 0.000000000000000000e+00
2.788647761347811116e-01 4.101898699894743761e-01 0.000000000000000000e+00
4.897973809135254264e-01 4.308118804631166920e-01 0.000000000000000000e+00
4.228400335211905947e-01 8.873639541339795045e-02 3.134499271165825940e-01
5.724361527863940369e-01 4.919072680397191810e-01 0.000000000000000000e+00
1.531234183187186737e-01 8.776446710529257622e-01 0.000000000000000000e+00
7.700139674425779956e-01 4.201204550744626065e-01 0.000000000000000000e+00
4.183195972349366132e-01 5.365457013730555724e-01 0.000000000000000000e+00
5.640698898508871295e-01 4.743073619310134159e-01 0.000000000000000000e+00
1.554511863030187957e-01 4.658474154559748559e-01 0.000000000000000000e+00
7.451808168165642288e-01 4.605821854242282409e-01 0.000000000000000000e+00
3.311875535742514476e-01 6.749174081165019157e-01 1.639589969217229992e-01
3.036506766244257971e-01 4.571604107113320659e-01 0.000000000000000000e+00
5.959050748597347624e-01 2.234514151213942146e-01 0.000000000000000000e+00
5.823716076272016373e-01 5.179896118044047260e-01 0.000000000000000000e+00
5.199415768976768382e-01 -2.383090777741123656e-01 5.358690068582728783e-01
4.356542703130699135e-01 6.995793668221539363e-02 2.592375752659439314e-01
3.274136010657904272e-01 1.572456740508145767e-01 3.264370099739606346e-01
4.552972545455846731e-01 4.997156023700217720e-01 3.632727026071227439e-01
3.752859203558676082e-01 1.432308939755526644e-01 4.538342571865193742e-01
5.852091197040345527e-01 1.880657745311939966e-01 0.000000000000000000e+00
2.628650979283462252e-01 5.464652577931449207e-01 0.000000000000000000e+00
2.461851848676559484e-01 1.626197410281032818e-01 2.819454442216041690e-01
4.041026037201704835e-01 6.940661799459731940e-01 3.261977123160325620e-01
5.581770254790527908e-01 1.881650731376075525e-01 0.000000000000000000e+00
7.127666805334984534e-01 1.392877538746571942e-01 0.000000000000000000e+00
7.085900162379997758e-01 1.849414044751686026e-01 0.000000000000000000e+00
7.786802014589229159e-01 2.587123217973068545e-01 3.566280493727094214e-01
1.931713372477830148e-01 3.286283968000809352e-01 0.000000000000000000e+00
-6.989434938175831391e-03 3.507006649085453454e-01 0.000000000000000000e+00
5.400296602858802864e-01 7.096611224960267528e-01 4.161839852079951552e-01
7.867714892636925583e-01 4.125928408330381547e-01 4.709531875092356490e-01
4.853235595506077971e-01 6.023543151126231621e-02 0.000000000000000000e+00
1.315221856236412634e-01 2.274110193494753851e-01 0.000000000000000000e+00
1.397912270501062704e-01 7.393302468116177417e-01 0.000000000000000000e+00
6.346669910282911609e-01 6.489173776814504135e-01 0.000000000000000000e+00
6.217634835847083430e-01 8.489258803189374536e-01 3.164348631580609084e-01
3.018700542375966078e-01 6.368239976299386873e-01 0.000000000000000000e+00
5.663322013977037939e-01 3.028985445725252967e-01 4.828568860060969969e-01
4.912812644964836828e-01 3.348317404541489850e-02 0.000000000000000000e+00
4.233764471399991125e-01 9.638590285330672636e-02 0.000000000000000000e+00
6.272783906486265604e-01 -2.338748224464115566e-02 0.000000000000000000e+00
5.928570986181296298e-01 1.440601269718565502e-01 0.000000000000000000e+00
7.006860521643156758e-01 7.233397747504859421e-01 0.000000000000000000e+00
4.706830996010291646e-01 4.352462180878285958e-01 0.000000000000000000e+00
4.879710150993600282e-01 4.873464313305309048e-01 0.000000000000000000e+00
3.694658503348463574e-01 5.724341976585430869e-01 0.000000000000000000e+00
6.182815077830819961e-01 3.532963797228197977e-01 3.508067325034940342e-01
7.513985295752639848e-01 4.148349780132054576e-01 3.853009806044600527e-01
3.845217242025877891e-01 4.195890637465509165e-01 2.909482583114044729e-01
6.292692081549420280e-01 4.266563939734697719e-01 0.000000000000000000e+00
4.008346579525166042e-01 2.093653580460330677e-01 3.499476702887904800e-01
4.174468294558055792e-01 3.160438120416455554e-01 6.422163029185002925e-01
4.260422022574711365e-01 4.911372896100935082e-01 0.000000000000000000e+00
6.416880977502295025e-01 4.057578529203265116e-01 5.921884584207640634e-01
5.304838092992053555e-01 2.971311659884006140e-01 0.000000000000000000e+00
3.560344616376683868e-01 1.022694793880818409e-01 0.000000000000000000e+00
6.417940292546450154e-01 4.973249609249807968e-01 3.927827454382424310e-01
3.493982962833428463e-01 4.687893930059480185e-01 0.000000000000000000e+00
3.287333135147323393e-01 -1.761669497718143518e-02 0.000000000000000000e+00
4.717241664779756594e-01 2.194449128848350306e-01 4.211322240425899865e-01
3.031341815683856744e-01 7.392922569345106165e-02 0.000000000000000000e+00
3.863799291040248551e-01 1.699410328400388082e-01 0.000000000000000000e+00
4.621508747292384367e-01 1.706937364922631595e-01 0.000000000000000000e+00
3.005040714371987054e-01 2.574427314181135795e-01 0.000000000000000000e+00
3.591082824965459164e-01 3.364375029799149264e-01 0.000000000000000000e+00
3.033563615407437464e-01 3.787136416196541511e-01 4.517156308743360826e-01
6.983953394943941406e-01 4.595605683523605878e-01 0.000000000000000000e+00
4.864627910730228155e-01 4.280068235005574095e-01 0.000000000000000000e+00
4.001011060413663945e-01 2.118996307087903652e-01 0.000000000000000000e+00
5.088408662761864099e-01 1.428951787306822485e-01 0.000000000000000000e+00
4.777958094496748132e-01 4.720711063207561065e-01 2.980398173090921254e-01
1.059254101523217084e-01 5.215861446055958250e-01 0.000000000000000000e+00
9.271457881686698821e-01 6.157485071319571679e-01 2.503392604800231958e-01
6.722881784581983267e-01 3.586741905061094915e-01 2.467971427111756988e-01
3.707649314253789186e-01 8.869064151119654404e-03 0.000000000000000000e+00
7.192063979538609875e-01 4.961806491046640843e-01 0.000000000000000000e+00
6.110877214033205718e-01 3.160280362616343375e-01 0.000000000000000000e+00
4.028123617694313596e-01 2.108669731499034361e-01 0.000000000000000000e+00
7.169782724904517623e-01 4.409099945854588753e-01 0.000000000000000000e+00
7.387866885299927411e-01 4.672772999919074799e-01 0.000000000000000000e+00
3.827136732529805574e-01 2.055938304105847658e-01 4.436993838554803560e-01
7.833771346822540060e-01 -1.120119297356665378e-01 3.434255456347636848e-01
4.365809310789579012e-01 7.421577013506832632e-01 4.133338296264776890e-01
4.530522778832631881e-01 3.503550671939108518e-01 0.000000000000000000e+00
1.658868969520442826e-01 2.214139503866044967e-01 1.909186855445761388e-01
1.677795747965193929e-01 3.692894213745678833e-01 0.000000000000000000e+00
5.089672859951174244e-01 7.624521969345610106e-02 0.000000000000000000e+00
4.491138963425972408e-01 3.275958348372725037e-01 5.359134523449803345e-01
2.636518709509931835e-01 -3.642867369084563656e-01 5.876807151335853296e-01
5.631125865992377966e-01 5.640110215010443184e-01 3.723678195323678608e-01
6.019817663470411473e-01 2.468219016141514066e-01 2.936041472133097407e-01
7.191766905134135968e-01 2.876493537320092830e-01 4.873669090341019583e-01
5.095282695785831040e-01 1.327158144626641167e-01 0.000000000000000000e+00
4.605793803051617674e-01 1.112048733940612655e-01 0.000000000000000000e+00
6.725602973325226497e-01 5.553328086850782830e-01 0.000000000000000000e+00
6.263493147874406031e-01 2.220449770484379526e-01 1.433321421150041131e-01
2.663828580464709939e-01 5.641856424894264865e-01 0.000000000000000000e+00
1.051516948743237645e+00 6.511975266638121429e-01 0.000000000000000000e+00
5.165133714958365374e-01 4.235358043942734074e-01 0.000000000000000000e+00
4.706784282640326111e-01 3.476818516989508279e-01 0.000000000000000000e+00
6.605175764795490068e-01 1.863324793904661547e-01 3.504946550491014889e-01
7.505605977773263104e-01 2.381830466317340633e-01 1.670614007096091758e-01
6.313472591012405655e-01 4.516838401118824509e-01 0.000000000000000000e+00
5.747443751510347143e-01 2.009931308494476987e-01 6.215372340072771173e-01
7.417179229626849057e-01 1.699329697759287550e-01 1.468650579225362351e-01
5.422428981432000361e-01 4.231459943264602730e-01 0.000000000000000000e+00
6.098550459931774137e-01 2.130869549515133077e-01 2.666943855877860203e-01
7.873993138564445715e-01 1.916442066945804878e-01 2.201247089392497358e-01
8.214548022847412145e-01 3.739651879925520728e-01 3.137472032309303049e-01
8.635287679672849492e-01 2.525341662520437236e-01 3.098295285415222367e-01
5.351740896627222854e-01 4.934396430679410805e-01 0.000000000000000000e+00
5.764373402972463589e-01 3.395258085639650814e-01 0.000000000000000000e+00
6.847267512769704689e-01 4.649885620200024938e-01 6.880680149846764015e-01
4.070197762375702411e-01 1.979446747608510915e-01 3.089484215950560886e-01
3.934340676507359635e-01 4.022535252720388366e-01 2.130972793722912817e-01
5.329984685985942328e-01 5.796939886488753357e-01 0.000000000000000000e+00
3.718959447877865365e-01 2.789421596497361211e-01 0.000000000000000000e+00
7.216567703356033814e-01 7.316340524920739163e-01 0.000000000000000000e+00
4.615925422920397203e-01 2.853682500360932295e-02 7.474076644438187866e-02
6.617088615594020062e-01 3.404076627093310936e-02 0.000000000000000000e+00
5.453009576697772642e-01 -1.149842734778576681e-01 0.000000000000000000e+00
5.966707407278648567e-01 3.255519323151887523e-01 4.179300723235286341e-01
3.964945872915358605e-01 5.727132295047633326e-01 4.553337682206307635e-01
5.447921811258856772e-01 6.482318638723253423e-01 0.000000000000000000e+00
4.664036808462715955e-01 2.973234313063071177e-01 3.836759212500940874e-01
6.273972025168791378e-01 4.336526935385698334e-01 3.578050105461204611e-01
3.385396783761008832e-01 1.913167613438317982e-01 0.000000000000000000e+00
8.611662361147793820e-01 2.734762089899849258e-01 0.000000000000000000e+00
8.479987860967630464e-02 6.692490459740585429e-01 0.000000000000000000e+00
1.066557486340662386e+00 5.625317727907284127e-01 0.000000000000000000e+00
2.572270229272040076e-01 3.975225381897775634e-01 0.000000000000000000e+00
4.485183902018526902e-01 4.351029539041364469e-01 0.000000000000000000e+00
2.937262196667939085e-01 4.308611044792686195e-01 4.307891379352244421e-01
2.332706833620081799e-01 2.804291065727873011e-01 2.617703253376455486e-01
7.254381666758950020e-01 5.529775414935585998e-01 4.884424202930693903e-01
4.091644200919581920e-01 4.386638907640070251e-01 3.778230292021285130e-01
6.935280427846211015e-01 3.665340362075469871e-01 0.000000000000000000e+00
5.257693172445019325e-01 3.569370439932118000e-01 0.000000000000000000e+00
3.744694849731831088e-01 3.391822210958770345e-01 5.314887585133226677e-01
9.087413178018119986e-01 2.697257755494668618e-01 0.000000000000000000e+00
6.706772012193490395e-01 4.525550403582954129e-01 1.932665730498880352e-01
2.892617285271248395e-01 2.923812018904756727e-01 0.000000000000000000e+00
5.679591785371675972e-01 3.309806624108193596e-01 0.000000000000000000e+00
6.045118033877741048e-01 3.822661679815093638e-01 0.000000000000000000e+00
5.847284139939542547e-01 -6.117868029703510402e-02 5.948792848242417941e-01
5.896902846188608605e-01 4.915407068859152240e-01 0.000000000000000000e+00
5.879312998165786563e-01 1.094175982484866250e-01 0.000000000000000000e+00
9.400616406571450367e-01 3.070182364245306328e-01 0.000000000000000000e+00
5.014305197299012695e-01 4.662758492274330369e-01 0.000000000000000000e+00
5.568582845438134754e-01 2.202186300587199996e-01 0.000000000000000000e+00
6.919779158875858371e-01 3.159360307097891507e-01 0.000000000000000000e+00
1.183222112177402252e-01 6.073588019135609528e-01 1.630299054139299209e-01
3.321414791764696339e-01 3.245907302664079452e-01 5.543795039546801640e-01
1.604330527263578832e-01 3.427433352411659584e-01 0.000000000000000000e+00
3.146990041258574955e-01 2.837977735635650589e-01 6.000328258721991936e-01
2.929775177273480358e-01 -2.040062923940737516e-01 0.000000000000000000e+00
8.488759378577859227e-02 4.862839534764470395e-01 2.956529242557184300e-01
4.222503402485103807e-01 2.231959874501003860e-01 0.000000000000000000e+00
9.531758833338923598e-01 6.300034833159298131e-01 0.000000000000000000e+00
2.642411060980240922e-01 -5.704543524286131984e-02 5.377850766059774079e-01
5.806371157952193718e-01 3.158118641862897036e-01 0.000000000000000000e+00
4.247350161077168007e-01 3.767076126519186552e-01 1.792589277599975217e-01
6.889587920955185796e-01 1.087558159757903153e-01 0.000000000000000000e+00
6.548878875911769981e-01 4.566736674535676332e-01 0.000000000000000000e+00
9.489963270296248865e-01 3.096239609232880330e-01 0.000000000000000000e+00
3.324618469329332360e-01 1.643670513352023521e-01 0.000000000000000000e+00
2.201931640294372272e-01 -5.399203978896904843e-02 2.109934944130894552e-01
6.807007741320688643e-01 4.420302003141705072e-01 0.000000000000000000e+00
7.635617215739997077e-01 1.238896435886407410e-01 1.929293843279891174e-01
6.266207338730286347e-01 6.662579417008701599e-01 0.000000000000000000e+00
3.122752828551165205e-01 4.220972442790893453e-01 2.921726946156144589e-02
7.520525340678502202e-01 1.283213197933867900e-01 2.029493594775120258e-01
7.319700933917867580e-01 4.692138275100352640e-01 1.437752651483679145e-01
3.060478672438198267e-01 5.413153944104561743e-01 0.000000000000000000e+00
4.911206957890394964e-01 1.508024886582264301e-01 0.000000000000000000e+00
6.498617026486090964e-01 2.831610031852187515e-01 0.000000000000000000e+00
6.844420140943880959e-01 1.845247614733448449e-01 0.000000000000000000e+00
2.726426647288500149e-01 6.896564163993095242e-01 0.000000000000000000e+00
5.977392389484056379e-01 6.371540069292755959e-01 0.000000000000000000e+00
5.834071400477606195e-01 2.346138490693908674e-01 0.000000000000000000e+00
6.224687700595358253e-01 6.082579234543019631e-01 1.364984187682576344e-01
3.393199123596459810e-01 2.257886828867355922e-01 0.000000000000000000e+00
7.039037691210237035e-01 -6.296564429307127675e-02 2.876307864374529899e-01
6.820922874818707848e-01 6.439496161683080366e-01 0.000000000000000000e+00
6.379791583357083962e-01 2.303568459713363215e-01 1.639231450905360710e-01
3.450635219418052291e-01 2.966852060615945419e-01 7.437672034155358158e-01
5.762200733128562957e-01 1.709600434603740782e-01 3.290734627578890681e-01
3.223922389326363547e-01 -2.407542235974968747e-02 0.000000000000000000e+00
1.199090382138421340e+00 9.608116685894878550e-01 0.000000000000000000e+00