Bi24 S24 I23
1.0
  12.6111574199999996    0.0000011200000000    0.0000449000000000
   0.0000017300000000   17.1582865399999989   -0.0000025300000000
   0.0000368000000000   -0.0000015700000000   10.2820259099999998
Bi S I
24 24 23
cartesian
0 0 0
86.06804 0 0
0.786160728500923 41.82790165840319 0
86.04196465648344 41.98015419740789 1.066591138492243
30.706268650860473 21.51276376957496 75.1078828646675
55.1065274138113 20.914055228730664 75.34755265191819
22.771558814945195 18.222564797843276 25.758111241906388
63.94913105903257 19.367587961312076 26.146187842620165
22.38827759923539 62.61742944948037 23.843743257829658
64.12642939091137 61.44564020875398 28.644159906620683
22.656661890935236 -20.5885261260577 24.851095830299904
63.91706702723508 -23.486191347401746 22.61709479811571
43.166441166765445 -0.6783626118257413 25.379984872321913
42.2931103703489 -1.934634700613936 25.744984355055674
42.66878868894046 41.276082393400536 26.774009946068077
42.94987679507281 40.051332658352955 28.98461104777042
42.7915797495139 83.48709377632329 28.172296575593094
43.19540937479384 81.93503724052371 32.11866106554306
21.70992044273612 22.13383911695661 50.91982659146514
65.00870007759715 22.215217792353243 51.343646532216354
64.12008646095802 -24.58559346134072 48.78819949789883
47.12954622086731 54.44305257267181 43.412532203073376
21.623881156629576 -20.5651793380088 51.562257743790056
65.01213722200768 -21.14392997544865 51.776839255981514
-1.5745550720304486 20.72484611601538 17.61616371906559
83.54942828862733 21.376286422939476 16.986600040151668
63.79015299440377 -13.56761475996527 9.988032704973659
30.265932987230414 -56.80108968319082 11.880733276949162
-2.1441186230909905 -23.003565153647596 14.268719118437549
83.50375297715286 -21.09524079064205 17.499187765958272
18.052178219004027 -1.3456002134321017 33.943910323795954
67.51605341731782 -0.8591728036988646 33.38088456918132
18.58167350843463 40.64735801381519 35.313114163916325
67.12580789412736 40.944803518527166 34.52174010783501
49.495812926630244 20.948036419018152 75.19740174590015
36.187580295048626 19.94657374730991 75.41211516835992
40.5268947543576 22.09201714339575 59.02571077611137
45.847691272135414 21.064420364543654 58.83072722759105
40.59638424603195 64.56535197178117 57.87866235454083
45.86423200797818 62.88775521652908 58.935992626633144
40.51775032880971 -21.21454158191559 59.203308435203866
45.81118542488005 -21.953920021455744 58.50500446116413
24.93097603576135 -0.39067356159924277 6.7227898644831505
61.263842264408375 -1.9825698735123154 6.030823159008716
24.995517067184203 42.68601197483174 7.037827644512859
61.373867215128676 40.05801010892513 14.194721023871443
55.976388273501364 20.63968418610807 65.0740188143098
30.611115939623808 19.223349330976884 65.27461057986537
74.95068446625754 -1.5510562519701891 46.36734159642293
11.228135004808143 42.94883368973388 45.27102155725592
75.21772997293982 40.42016346914575 47.485306716869054
43.32185606446971 85.70100770649671 17.817184370680454
44.35771855883699 19.6797359356753 84.82911337634528
31.81161595669935 19.67569672012178 7.215758923950549
53.7873863221056 21.099613526008138 4.735210716089437
32.32058800619485 61.74415800274241 12.730121148478295
53.91389058697485 62.883369871715026 6.487192116998975
31.873889209211878 -21.070544406141913 1.5587531140654263
54.47403246913539 -21.488849262454444 3.4622716362130603
32.46334638890836 -0.4443333617678194 29.804277276464177
54.34616979598675 0.7537325193164954 30.14296258075627
32.30797532196082 41.6401360788691 30.01402037768471
54.00267586860663 42.73527970645667 29.740259199122203
63.13759048043245 21.109023817760033 67.60433299333302
23.339739254284293 21.982231191903004 67.83098911061171
11.288099673323648 21.130640791471592 21.52901332348297
74.45303762359897 17.779119996705383 23.75716719036805
63.63696809259092 14.728451049973522 19.64493543421299
36.32289008065678 7.579560583546825 56.1829601335702
10.778920175811034 -23.100829204239258 18.69063663207032
74.18161144139127 -20.96624828617332 20.973529071257346