POSCAR from GenerativeModels
1.0
5.000000000000000000e+01 0.000000000000000000e+00 0.000000000000000000e+00
0.000000000000000000e+00 5.000000000000000000e+01 0.000000000000000000e+00
0.000000000000000000e+00 0.000000000000000000e+00 5.000000000000000000e+01
Li Nb O U
80 98 562 96
Direct
0.000000000000000000e+00 0.000000000000000000e+00 0.000000000000000000e+00
4.627415913926624103e-01 2.460380101813890719e-01 2.591901058229907351e-01
2.541861976602895479e-01 2.460379576406566682e-01 2.591901374958522908e-01
8.515968060700529474e-01 9.618893873388204008e-02 2.591903938500297877e-01
6.430415122148290807e-01 9.618872303989828287e-02 2.591901800584015536e-01
4.344860501786866336e-01 9.618887842171371105e-02 2.591902057805861581e-01
2.259307192783172324e-01 9.618897489754515973e-02 2.591900990293022344e-01
8.233414517727162263e-01 9.463397535653276238e-01 1.292835904023608984e-01
6.712970839932785871e-01 2.460380866182680093e-01 2.591898898875815704e-01
6.147859658842975694e-01 9.463398378910609088e-01 1.292839753747651310e-01
1.976752159473228743e-01 9.463399386374682365e-01 1.292837809610671573e-01
8.798525809661731367e-01 2.460380294181066796e-01 1.292827569350630534e-01
6.712968605513838227e-01 2.460378980801440907e-01 1.292846067873225091e-01
4.627416204304946601e-01 2.460380312024586513e-01 1.292837371983547590e-01
2.541862129351015742e-01 2.460379714619339020e-01 1.292838414580296247e-01
8.515969388760581404e-01 9.618887526230616991e-02 1.292837521576247484e-01
6.430414735496424727e-01 9.618891153090544655e-02 1.292839889573483281e-01
4.062306292770565541e-01 9.463399043847211534e-01 1.292837651582769420e-01
8.798522949590126263e-01 2.460381007970453004e-01 2.591903978602852487e-01
1.976752205140304142e-01 9.463399555946820918e-01 2.591900939989925101e-01
4.062306245471169475e-01 9.463399545258298629e-01 2.591901000768591090e-01
8.657248498999813302e-01 1.711135409355554471e-01 1.948588004546941699e-01
6.571692153487670440e-01 1.711135351969486351e-01 1.948595550692697465e-01
4.486138314482099321e-01 1.711134666400055404e-01 1.948595499066254066e-01
2.400584867442827897e-01 1.711134875869810279e-01 1.948594482461292188e-01
8.374693096871520526e-01 2.126462504192180511e-02 1.948589360589272346e-01
6.289136639590277023e-01 2.126432455695018153e-02 1.948597222699293419e-01
4.203583496783144247e-01 2.126441523409483905e-02 1.948595009400606315e-01
2.118029758179388045e-01 2.126446439251470852e-02 1.948594538016826527e-01
8.657244691070564713e-01 1.711132405692248060e-01 6.495612570116510165e-02
6.571692564351782062e-01 1.711134783677184523e-01 6.495347963043808515e-02
4.486139386188049971e-01 1.711134811412581835e-01 6.495281980278831691e-02
2.400584183271561034e-01 1.711134228913878397e-01 6.495337240849821669e-02
8.374691610349797033e-01 2.126433231640828883e-02 6.495353698741657134e-02
6.289137652502784226e-01 2.126449991546313853e-02 6.495332228181030509e-02
4.203583761562552645e-01 2.126442155251140678e-02 6.495319780276710697e-02
2.118029775445035012e-01 2.126447649748309729e-02 6.495313520391692019e-02
6.147861111412240565e-01 9.463400018687937454e-01 2.591899934247139381e-01
4.344860721787589530e-01 9.618890712247608887e-02 1.292839555329446388e-01
2.259307143989923439e-01 9.618898463062494630e-02 1.292838026018740538e-01
8.233411611604912750e-01 9.463398143571686294e-01 2.591908138971553699e-01
6.680495683276739260e-01 2.247735574476692755e-01 1.942366249782317700e-01
2.368109171720858552e-01 1.498490180680812356e-01 1.299062772714603686e-01
2.825548963960491239e-02 1.498489916714946524e-01 1.299063110351517669e-01
8.342217395073743269e-01 2.960036758277337321e-08 1.299056901089589711e-01
6.256661781894087282e-01 9.999998311623794489e-01 1.299064078600084271e-01
4.171107896487321609e-01 9.999999731848560058e-01 1.299063315964693877e-01
2.085553901636178209e-01 9.999999836226524108e-01 1.299063110351533212e-01
2.212886266251061299e-08 2.881435031789360737e-08 1.299063110351511563e-01
4.453662537274702404e-01 1.498489740355667399e-01 1.299064661274501320e-01
6.539217733614697270e-01 1.498491665264058137e-01 0.000000000000000000e+00
2.368108867720364052e-01 1.498489836790964369e-01 1.146217353207311428e-04
2.825550597752689644e-02 1.498490215777837364e-01 0.000000000000000000e+00
8.342217636108363310e-01 2.589895190490403693e-07 0.000000000000000000e+00
6.256661224365269725e-01 9.999999433989337216e-01 3.089806986036877428e-04
4.171108245849609597e-01 9.999999727926413007e-01 0.000000000000000000e+00
2.085554122924804799e-01 0.000000000000000000e+00 0.000000000000000000e+00
8.766046055861183017e-01 2.247732381300566185e-01 1.942382843665351466e-01
4.453663253930706944e-01 1.498489715199478045e-01 6.566914891232898492e-05
6.539216842577895150e-01 1.498489707230905577e-01 1.299064074225303456e-01
8.624768340624935359e-01 1.498486266704762704e-01 7.319233448622427043e-04
1.412773948074397441e-02 7.492451333596171492e-02 6.433061193081407447e-02
4.594939953957322687e-01 2.247734198905237402e-01 1.942371641758978140e-01
8.624772192003797855e-01 1.498489110141912883e-01 1.299058589014031873e-01
2.509386658132032877e-01 2.247735316516706328e-01 1.942369279899394119e-01
4.238322424839310876e-02 2.247735064256358717e-01 1.942369635691682805e-01
8.483493798516579254e-01 7.492437057153178426e-02 1.942370009707257150e-01
6.397939417502898074e-01 7.492437012220723447e-02 1.942370861554842676e-01
2.226831377446595595e-01 7.492449299778812521e-02 1.942369599031029959e-01
1.412776401156102223e-02 7.492450871043504490e-02 1.942369510375432651e-01
8.766048861464613706e-01 2.247733902429118191e-01 6.433106718580491878e-02
4.312385809253488911e-01 7.492454125770239837e-02 1.942369058756100719e-01
6.680494437485974268e-01 2.247736097145900391e-01 6.433061297858409799e-02
4.594940738120286139e-01 2.247734894563719332e-01 6.433073062972695377e-02
2.509386421786733434e-01 2.247735028822979708e-01 6.433075916321777388e-02
4.238325820944118666e-02 2.247735432651810084e-01 6.433059940376625874e-02
8.483495337826579830e-01 7.492452053298595538e-02 6.432886453060622511e-02
6.397938571028758403e-01 7.492447696573088789e-02 6.433154472822370795e-02
4.312385748608150715e-01 7.492450416907373012e-02 6.433064126237131308e-02
2.226831690539175790e-01 7.492449652815232064e-02 6.433062771147218806e-02
9.955578048246284395e-02 2.249371697858826014e-01 9.700531531037066835e-02
9.055218393196249327e-01 7.508785841408593953e-02 9.700583291343958803e-02
6.969664197856805243e-01 7.508797710780054646e-02 9.700579306627385434e-02
4.884110332748265448e-01 7.508811908513413069e-02 9.700555336038239884e-02
7.130025894073030446e-02 7.508815757658171552e-02 9.700531949849096336e-02
7.661689591182843095e-01 9.461762065221928086e-01 1.619582627702975952e-01
9.747241236302912615e-01 9.461762185174175110e-01 1.619594389166109372e-01
3.081111556709558719e-01 2.249371085477007148e-01 9.700549538958495865e-02
2.798556987205602642e-01 7.508812506537117237e-02 9.700532446059861869e-02
5.166665385971469515e-01 2.249371131731063289e-01 9.700557793802316864e-02
2.798556680930266438e-01 7.508810795438768115e-02 2.269116500770661238e-01
9.337771792100081347e-01 2.249371916455655540e-01 9.700714204304744515e-02
2.516002123786020839e-01 9.252391422087917761e-01 9.700530337431194361e-02
4.601555421262854551e-01 9.252390046059166817e-01 9.700541141954693858e-02
6.687110193131471370e-01 9.252389434534118440e-01 9.700505645586218750e-02
8.772664176435580607e-01 9.252392198538331725e-01 9.700536572315472672e-02
7.130029865283316060e-02 7.508816491798882276e-02 2.269116177619729391e-01
4.884111310344876888e-01 7.508821805768840785e-02 2.269115511757314185e-01
5.576134934854805048e-01 9.461762488473819399e-01 1.619584604839970632e-01
6.969664645716953100e-01 7.508825351205621057e-02 2.269117089584894720e-01
7.252221233086403318e-01 2.249373555996661000e-01 9.700409745609293866e-02
3.490580801398844302e-01 9.461763038124404446e-01 1.619584810202655822e-01
4.055690222416932222e-01 2.458742743541514342e-01 3.205341496337221069e-02
3.123511862733696631e-02 2.458741938279858374e-01 1.619595876808325174e-01
9.055218142073342413e-01 7.508800142691390844e-02 2.269119848291308306e-01
7.944245261879422371e-01 9.602535589080377076e-02 3.204979336910816767e-02
2.979531293468173914e-03 9.602549002041779747e-02 3.205948305474736609e-02
1.970136860102226772e-01 2.458743839141452336e-01 3.205210702465782074e-02
6.141244797828069313e-01 2.458743127285420993e-01 3.205254806363821291e-02
8.226798658982679147e-01 2.458740862587300291e-01 3.205478677881851146e-02
3.123538264771363870e-02 2.458745472473891913e-01 3.204856932215472548e-02
1.405026872659240755e-01 9.461763257439929076e-01 3.205215531379890931e-02
3.490580911373101225e-01 9.461763481714939861e-01 3.205222988955889335e-02
5.576134965487379302e-01 9.461762358407312945e-01 3.205211619458197408e-02
7.661689355904820475e-01 9.461762986292040489e-01 3.205175627121362864e-02
9.747239841090603596e-01 9.461761299336235442e-01 3.206016757277122681e-02
1.687581605422560915e-01 9.602534590637779033e-02 1.619584993614229806e-01
3.773135465498687058e-01 9.602529579371889279e-02 1.619585564616564111e-01
5.858689957767411194e-01 9.602528369894049176e-02 1.619584775868760096e-01
7.944243530830358280e-01 9.602513817107642680e-02 1.619587627772764438e-01
2.979687182251833377e-03 9.602523304556970229e-02 1.619590900719236615e-01
1.970136518766764100e-01 2.458743481419553290e-01 1.619585260873135091e-01
4.055690774228061235e-01 2.458743802915415444e-01 1.619584611576592448e-01
6.141244271483987660e-01 2.458742882549128927e-01 1.619587575583137651e-01
8.226798477128997034e-01 2.458742709018020556e-01 1.619587525362559122e-01
1.405026880401148981e-01 9.461763207548153920e-01 1.619584691330898107e-01
9.955574435137791445e-02 2.249371214846707934e-01 2.269116582159131090e-01
5.717412929753254991e-01 2.110087766693170830e-02 1.621846285057256809e-01
5.166665646594357231e-01 2.249370637358936442e-01 2.269117651170205752e-01
1.546304310433531670e-01 2.110083056641303551e-02 3.227848174446990015e-02
3.631858502869925176e-01 2.110087356573489559e-02 3.227842033560486545e-02
5.717412302824278481e-01 2.110081216196064632e-02 3.227882386895992994e-02
7.802966320795864386e-01 2.110079731483193929e-02 3.227901947321808879e-02
9.888520360705596035e-01 2.110099633152452692e-02 3.227909005172482915e-02
1.828859205126552034e-01 1.709498569073622243e-01 3.227855771347504232e-02
3.914413449597775041e-01 1.709498388818813663e-01 3.227858431131547245e-02
5.999966775881691028e-01 1.709497722456819746e-01 3.227990327840520035e-02
8.085521728522608864e-01 1.709498050274207426e-01 3.227818740591701513e-02
9.196498078379815588e-01 1.500124067651204540e-01 2.271374849731488121e-01
1.710762431069157152e-02 1.709499121329433879e-01 3.227663903559072067e-02
3.631858006957850993e-01 2.110080923656837762e-02 1.621848165265549202e-01
5.858689401025444221e-01 9.602527088965970292e-02 3.205322478784788237e-02
7.802966818683648720e-01 2.110072166583529252e-02 1.621847312908614169e-01
9.888519286666618280e-01 2.110074336207163823e-02 1.621855246850750776e-01
1.828859165213569948e-01 1.709498451680237785e-01 1.621847935498494930e-01
3.914413432259082892e-01 1.709498933233028206e-01 1.621847265404489924e-01
5.999966248773017652e-01 1.709496756837888265e-01 1.621852712501486993e-01
8.085521145870810944e-01 1.709495591265619285e-01 1.621851077043416911e-01
1.710742202362380837e-02 1.709495613332527308e-01 1.621856281227555818e-01
1.546304330165430563e-01 2.110084291174106966e-02 1.621847696100888192e-01
5.025387711841065030e-01 1.500125840995270021e-01 2.271380739242717384e-01
2.939834310148934371e-01 1.500126349712808116e-01 2.271379469774542359e-01
8.542805093141633832e-02 1.500126563708737426e-01 2.271379207301370273e-01
7.252219795935802571e-01 2.249370758254504166e-01 2.269117471177374834e-01
9.337774501963674867e-01 2.249372457766174449e-01 2.269113922823672580e-01
2.516002088500958189e-01 9.252390736699014351e-01 2.269115940711300405e-01
4.601555390846800986e-01 9.252390230674646387e-01 2.269116683850558869e-01
6.687109437897947872e-01 9.252389235031217574e-01 2.269116509678630600e-01
8.772664978442231698e-01 9.252391335756957602e-01 2.269113024066200246e-01
5.717252744716081608e-02 1.636302064491021750e-04 9.723160608195531573e-02
2.657279520231214942e-01 1.636161078208784464e-04 9.723159888294993780e-02
4.742833627551405473e-01 1.636225318430438208e-04 9.723160313678422262e-02
6.828385997672232754e-01 1.634928557651344275e-04 9.723245834643075292e-02
8.913943632203462641e-01 1.635418298850341312e-04 9.722999212109410816e-02
8.542803936804711784e-02 1.500126768849302517e-01 9.723160254499380040e-02
2.939834188827487038e-01 1.500126286223731342e-01 9.723170580493688264e-02
5.025388267221272409e-01 1.500125709930286710e-01 9.723180818163154604e-02
7.110941569312018151e-01 1.500126577104429759e-01 9.723209863541852627e-02
9.196498419024367044e-01 1.500125683052066783e-01 9.723024235422679518e-02
5.717255687788194707e-02 1.636348026836479958e-04 2.271379177287594919e-01
2.657279447769154146e-01 1.636218421623278818e-04 2.271379238781340570e-01
4.742833115298173419e-01 1.635410527432338103e-04 2.271379772129168140e-01
6.828386567155431131e-01 1.635261447867556025e-04 2.271381173481778204e-01
8.913943754205423398e-01 1.638402936483217265e-04 2.271371959607528523e-01
3.081112043506504805e-01 2.249371546320247106e-01 2.269116044259985865e-01
3.773136052889486947e-01 9.602534315973222656e-02 3.205209622036997441e-02
7.110941375682442445e-01 1.500125577880109251e-01 2.271381928729433453e-01
1.687581719752894449e-01 9.602533574699659291e-02 3.205222910707769546e-02
9.550145132916837420e-01 1.042912350924736498e-01 1.578533313272283412e-01
1.490483087520123595e-01 2.541403059036606016e-01 1.578536121242814505e-01
3.576036982381690654e-01 2.541402222657045962e-01 1.578537683133189595e-01
5.661591797285415728e-01 2.541403382769963915e-01 1.578534247762195530e-01
7.747146103762045932e-01 2.541404410986433660e-01 1.578531934026176364e-01
9.832697675219551625e-01 2.541401388347230283e-01 1.578549322448256353e-01
3.010927488194312662e-01 9.544423340051922944e-01 1.578535699210457943e-01
7.464590280335621220e-01 1.042912121040555085e-01 1.578536915558607090e-01
5.096480749332614746e-01 9.544422144349554715e-01 1.578536997908137895e-01
9.267589809112309895e-01 9.544421862111255317e-01 1.578534784590476248e-01
1.192656329170071888e-01 6.682214671001598938e-02 9.290043393674665695e-02
3.278210079216540285e-01 6.682208910476986063e-02 9.290052324157115071e-02
5.363764264317307795e-01 6.682205582520334142e-02 9.290052523887873392e-02
7.449317693562814702e-01 6.682210430941899759e-02 9.290089087122377354e-02
9.534870199428624460e-01 6.682165742817487708e-02 9.290250893950548206e-02
1.475211147876278051e-01 2.166711775894066827e-01 9.290045819466846710e-02
7.182036061607894872e-01 9.544423510258571719e-01 1.578533552165985732e-01
5.379035810207430934e-01 1.042913357054126439e-01 1.578537282078471826e-01
3.293482554451452882e-01 1.042913192010604118e-01 1.578535581845970370e-01
1.207928361047142796e-01 1.042913196278932308e-01 1.578535632958343315e-01
5.520313519256885293e-01 1.792157943949199972e-01 1.662898418041287574e-01
7.605866175299064169e-01 1.792154893430107643e-01 1.662906575259352204e-01
9.691424042355737400e-01 1.792161101028797165e-01 1.662882759938183463e-01
1.207928371408039797e-01 1.042912888405186506e-01 2.794725247783276523e-02
3.293482442666888499e-01 1.042912877412213585e-01 2.794727891100417735e-02
5.379036082013093356e-01 1.042912199367758974e-01 2.794810180496999988e-02
7.464589921517275073e-01 1.042910578469284366e-01 2.794925212174612095e-02
9.550143817958683945e-01 1.042913208925920349e-01 2.794887546194864056e-02
1.490483342285590096e-01 2.541403557807544455e-01 2.794712162069548644e-02
3.576037168397439014e-01 2.541403148861038908e-01 2.794765179289265128e-02
5.661591653539668201e-01 2.541403792801634198e-01 2.794660273483517976e-02
7.747144206823466384e-01 2.541403010889841108e-01 2.795049339078459552e-02
9.832694136591364487e-01 2.541397202969521429e-01 2.796739146620010746e-02
3.010927397789981419e-01 9.544422781512549303e-01 2.794728240182147924e-02
5.096481574935328718e-01 9.544423651637574668e-01 2.794736582828469262e-02
7.182036064771171180e-01 9.544423925193907809e-01 2.794674131534778672e-02
9.267586898860054045e-01 9.544423061129236885e-01 2.795505120459352774e-02
3.560765207978447977e-01 2.166711883753444090e-01 9.290044301459786380e-02
3.434760025833856201e-01 1.792158478677517985e-01 1.662896541494405245e-01
5.646319281608576102e-01 2.166711833920471342e-01 9.290047353118163764e-02
9.817426489513719767e-01 2.166713934500235916e-01 9.290073233923569485e-02
7.660012825995257124e-01 9.850784228758661110e-01 2.199990451257911525e-02
9.745568264993461627e-01 9.850787715369337949e-01 2.199555820585745447e-02
1.685905964349547759e-01 1.349276500655379463e-01 2.199903238689799104e-02
3.771459804833796059e-01 1.349275871295244345e-01 2.199963483642874626e-02
5.857013615970365628e-01 1.349275571640932425e-01 2.200035311527863413e-02
7.942567791591970128e-01 1.349275430629519046e-01 2.200029930578656021e-02
2.812407715917508710e-03 1.349276069996682148e-01 2.199209806198682698e-02
5.574458813741227647e-01 9.850786272355643858e-01 2.199976269565902948e-02
1.403351060168704922e-01 9.850786223521917906e-01 1.519052761473423385e-01
5.574459140591823125e-01 9.850786319892067544e-01 1.519053154988251608e-01
7.660011729366160704e-01 9.850782946653108274e-01 1.519058453489335603e-01
9.745568720164999865e-01 9.850785229127341225e-01 1.519044216069655173e-01
1.685906360981210272e-01 1.349276538028480743e-01 1.519052548493177168e-01
3.771459900990468128e-01 1.349276167967494444e-01 1.519053524137450872e-01
5.857013934684169865e-01 1.349275815023305014e-01 1.519054059174884674e-01
7.942569410411034481e-01 1.349279208144267550e-01 1.519045829265598668e-01
3.488905186082060794e-01 9.850786069633947761e-01 1.519052743596359389e-01
3.488905235525305848e-01 9.850786129494020216e-01 2.199888914414379476e-02
1.403350994345098635e-01 9.850786147145889071e-01 2.199896577867423847e-02
9.252315989865925738e-01 9.169729255401330992e-01 2.228071871409223470e-01
2.995655483858678525e-01 9.169731355071444323e-01 9.290043424135439876e-02
5.081209435235123362e-01 9.169731940727128272e-01 9.290054189968531551e-02
7.166762379404968408e-01 9.169729559420900511e-01 9.290097379872300221e-02
9.252318569619446542e-01 9.169731640436804554e-01 9.289956497910881184e-02
1.192656464877324268e-01 6.682217595762521278e-02 2.228067154352047219e-01
3.278209961944936746e-01 6.682208616710591520e-02 2.228067758656827324e-01
5.363764733302968102e-01 6.682207880759430396e-02 2.228066826672999989e-01
7.449316839770726562e-01 6.682193594901301992e-02 2.228072109456612215e-01
9.534873751589220126e-01 6.682225941077261921e-02 2.228061814974296451e-01
1.475211111643996154e-01 2.166712091166874965e-01 2.228067340696807674e-01
3.560765003255138561e-01 2.166712109084207583e-01 2.228067476426434101e-01
5.646320216145613857e-01 2.166712492373062959e-01 2.228065361772739172e-01
7.731871353215861165e-01 2.166712295019253276e-01 2.228073120371582283e-01
9.817429770875049089e-01 2.166712820623135083e-01 2.228057705574826297e-01
2.995655632115367117e-01 9.169731238735862044e-01 2.228066998156137679e-01
5.081209638555445052e-01 9.169732066378245561e-01 2.228067463184025265e-01
7.166763079641423895e-01 9.169731563367243821e-01 2.228068830705816350e-01
7.731872891691737859e-01 2.166712123178305693e-01 9.290071776310403207e-02
1.349205722314884559e-01 1.792158195286158717e-01 1.662896993441214111e-01
3.912737406937613627e-01 2.098521030950034616e-01 1.722380283191888850e-01
7.323313506086602809e-01 2.936688057168033994e-02 1.662895318357168195e-01
8.177070399180310645e-01 5.315241225276522846e-02 8.543478967460696460e-02
2.626239753662051868e-02 5.315262026801148565e-02 8.543518354943133164e-02
2.202963439582762140e-01 2.030016457595469337e-01 8.543448854444683771e-02
4.288517218236617135e-01 2.030016094699483298e-01 8.543466354397086238e-02
6.374070661593451703e-01 2.030015201778526679e-01 8.543521682840134190e-02
8.459624923980457734e-01 2.030014430919092061e-01 8.543529594259476057e-02
5.451803831584811633e-02 2.030016055085399618e-01 8.543358687959269615e-02
6.091516335459504772e-01 5.315255061570039324e-02 8.543466138070131277e-02
3.723407591163339636e-01 9.033035757981461300e-01 8.543440785311946783e-02
7.894516341576796048e-01 9.033035646056358781e-01 8.543406048238172401e-02
9.980067495055148230e-01 9.033035975823491270e-01 8.543684167120334239e-02
1.920408751592265761e-01 5.315264014724161573e-02 2.153407331978909878e-01
4.005962395607836068e-01 5.315258782549391742e-02 2.153407888215977950e-01
6.091515490816081790e-01 5.315255459062459553e-02 2.153409882098915873e-01
8.177072145854640262e-01 5.315249793430435604e-02 2.153402859146391624e-01
2.626252074627188904e-02 5.315253497266132776e-02 2.153406797836682207e-01
5.808961748364158684e-01 9.033036109251756374e-01 8.543443267241118688e-02
4.005962465848039722e-01 5.315261162541434770e-02 8.543450464720708792e-02
1.920408591804783072e-01 5.315263269286320952e-02 8.543443559624344652e-02
8.539838166524755803e-01 9.681116111419019177e-01 1.503870828109150626e-01
2.283175217481431263e-01 9.681117897158962871e-01 2.048121125327602085e-02
4.368728911302900419e-01 9.681117565680227299e-01 2.048163798888398210e-02
6.454283253582636659e-01 9.681117043169905623e-01 2.048108874724615877e-02
8.539837684042099752e-01 9.681116318395344145e-01 2.048000672815891363e-02
4.801761570618613001e-02 1.179608320074393285e-01 1.503876047707048413e-01
2.565730192677091459e-01 1.179608457346881939e-01 1.503875967910704159e-01
4.651284448999540855e-01 1.179608831590760881e-01 1.503875446774759206e-01
6.736837319813213654e-01 1.179609138292432025e-01 1.503879078810659298e-01
8.822393284138566605e-01 1.179608871576220963e-01 1.503871039182158031e-01
7.627313096136049964e-02 2.678098642617733338e-01 1.503875934339631015e-01
2.848284875616824419e-01 2.678098223162278524e-01 1.503876963762209307e-01
4.933839326385023316e-01 2.678097907499502606e-01 1.503876904970453121e-01
7.019392310474958929e-01 2.678098026047864288e-01 1.503880430084284237e-01
9.104946442740446955e-01 2.678095378289999662e-01 1.503885101582516370e-01
2.283175046099127359e-01 9.681117956194968954e-01 1.503876039183285052e-01
4.368729102253551266e-01 9.681117149179935266e-01 1.503875969433875193e-01
6.454282209308443985e-01 9.681115720878304964e-01 1.503878617653936489e-01
2.202963186720935662e-01 2.030015916489173178e-01 2.153408062007585722e-01
4.288517524358090860e-01 2.030015972000382973e-01 2.153407790023786905e-01
6.374070970326911612e-01 2.030016683822560286e-01 2.153408467148902328e-01
8.459626326755659287e-01 2.030015228042220121e-01 2.153406188348671313e-01
3.419487759486230516e-01 1.417466524704971698e-01 2.312428485819059965e-01
5.505041942719360870e-01 1.417466621041523489e-01 2.312428337586395211e-01
7.590595514312432623e-01 1.417466797562681180e-01 2.312429541900719310e-01
9.676151180134151542e-01 1.417466797187351690e-01 2.312424477535221234e-01
1.066650915290613122e-01 2.936679982690628549e-02 3.638333549063782479e-02
3.152204764757802202e-01 2.936676582388146606e-02 3.638344310560463757e-02
5.237759285556531363e-01 2.936677579587127981e-02 3.638309034325239166e-02
7.323313156877611085e-01 2.936703966624316930e-02 3.638323956997004116e-02
9.408865520357690970e-01 2.936667737917894247e-02 3.638707324497122281e-02
1.349205565369722415e-01 1.792158258799199932e-01 3.638345198894559623e-02
3.434759674969186105e-01 1.792158053153256325e-01 3.638355822628544511e-02
5.520314296040603752e-01 1.792157890620793836e-01 3.638316801217295060e-02
7.605868356014606757e-01 1.792158096450293392e-01 3.638316213836483709e-02
9.691421068383584414e-01 1.792159041957160359e-01 3.638564507110638585e-02
1.066650658727616857e-01 2.936682711715044372e-02 1.662896944378577657e-01
3.152204737971974757e-01 2.936681031217489024e-02 1.662897002074661401e-01
5.237758928975098094e-01 2.936684796958815430e-02 1.662896806521537707e-01
1.333933791882631614e-01 1.417466678733339536e-01 2.312428301805465602e-01
2.812197934406679423e-03 1.349276995148440961e-01 1.519055920193675135e-01
9.393595911593787262e-01 9.918973357552617331e-01 2.312425212625860982e-01
5.222486805554682476e-01 9.918976412682398713e-01 2.312428512625873955e-01
5.451796765130700884e-02 2.030014551677156442e-01 2.153409863331768037e-01
3.723407776652820633e-01 9.033036528395175235e-01 2.153407514834781988e-01
5.808960809073571152e-01 9.033036183369985705e-01 2.153409245469761479e-01
7.894517150104496395e-01 9.033038395375653229e-01 2.153404255252754917e-01
9.980070025352698604e-01 9.033036672024307157e-01 2.153408055458987114e-01
1.051379068567955405e-01 9.918976828717646077e-01 1.013365441565833580e-01
3.136932739704830220e-01 9.918976427824390818e-01 1.013365878247838164e-01
5.222486796066284631e-01 9.918976565466286477e-01 1.013366095303651071e-01
7.308041259956814528e-01 9.918977947664592287e-01 1.013364448612567997e-01
9.393594100254951673e-01 9.918977645288123979e-01 1.013373674262866564e-01
1.333933918182424738e-01 1.417466593080288773e-01 1.013365623517405167e-01
3.419487574319668433e-01 1.417466367726079868e-01 1.013366553187046992e-01
5.505041652910436234e-01 1.417466093652203218e-01 1.013367086153137420e-01
7.590597034864277060e-01 1.417466851549623874e-01 1.013359186416136759e-01
9.676146941501718723e-01 1.417464558890050574e-01 1.013393974960151434e-01
1.051378879381412723e-01 9.918976677192127278e-01 2.312428242351673990e-01
3.136932831425018886e-01 9.918975977264931077e-01 2.312428295520976007e-01
7.308040402400584057e-01 9.918974261806746684e-01 2.312429625380444387e-01
9.408864015100033562e-01 2.936647776459984024e-02 1.662911945123475843e-01
7.146785839636002335e-02 3.618584060551754966e-02 8.695212549812067482e-02
4.885786635011320489e-01 3.618585404465615024e-02 8.695217537902222293e-02
9.379972107026400829e-01 2.174216849511948213e-01 6.116243642861298423e-03
7.294419082754092232e-01 2.174216076428466260e-01 6.105880173493697001e-03
5.208864905452762484e-01 2.174215142282255320e-01 6.109669238016545573e-03
3.123310551127949086e-01 2.174214688528784412e-01 6.112466280608710306e-03
1.037756611692870340e-01 2.174214850639243635e-01 6.111578062931052185e-03
9.097416640631038609e-01 6.757232883115336930e-02 6.125980073380280638e-03
7.011863344418961530e-01 6.757233496297750108e-02 6.116442368705688089e-03
7.552017384660106303e-02 6.757245772594351607e-02 1.360174850467293917e-01
4.926309488300827932e-01 6.757244663790118455e-02 6.113058769754769681e-03
7.552018184302855541e-02 6.757246803119044964e-02 6.111198471845605967e-03
9.238694487848860826e-01 1.424968790913286876e-01 1.881262959398129486e-01
7.153141857010496540e-01 1.424970430291477852e-01 1.881256044260190274e-01
5.067587595494315034e-01 1.424970059844189174e-01 1.881256698185050646e-01
2.982032834861301218e-01 1.424969439417879125e-01 1.881258178979591245e-01
8.964793427510586721e-02 1.424969845423333104e-01 1.881257570845275562e-01
8.956140808133078446e-01 9.926477414033979541e-01 1.881256343951596133e-01
2.840755632690123433e-01 6.757245774534088867e-02 6.111693621950672027e-03
2.840755807936705124e-01 6.757244940385462306e-02 1.360174921489802069e-01
4.926309715473922157e-01 6.757249281192191648e-02 1.360175155683542580e-01
7.011864473263821340e-01 6.757235838327399491e-02 1.360173524146143231e-01
2.701544873735084451e-02 2.533903310610522430e-01 7.106296002994137717e-02
8.184600096370586719e-01 2.533902113413555868e-01 7.106369566856338138e-02
6.099045849000376274e-01 2.533899939706670268e-01 7.106457754184689057e-02
9.104947074382817584e-01 2.678099499231269554e-01 2.048092736840524328e-02
4.013491786150884533e-01 2.533899759381971206e-01 7.106460791040929148e-02
1.927937712917600910e-01 2.533899834861387812e-01 7.106456751624916357e-02
9.987598531081218756e-01 1.035409129853646498e-01 7.106479773371363051e-02
7.902043457906400281e-01 1.035407056700595185e-01 7.106615640703950465e-02
5.816490667799242287e-01 1.035410475721835200e-01 7.106456739028389757e-02
3.730936787340592420e-01 1.035410561383901251e-01 7.106442761285509946e-02
1.645383094165359938e-01 1.035410501945636663e-01 7.106433677134454951e-02
9.379972101117172167e-01 2.174214089174771047e-01 1.360179648067739722e-01
7.294418069741703814e-01 2.174212485586828059e-01 1.360181720397631855e-01
5.208864291432719895e-01 2.174214457179917404e-01 1.360177249133870114e-01
3.123311054100912920e-01 2.174214963554030322e-01 1.360174406157270144e-01
1.037756701472717369e-01 2.174214747456279517e-01 1.360174926839810006e-01
9.097415901552200479e-01 6.757215462598491207e-02 1.360188427498070507e-01
6.870586512288734404e-01 9.926479086997072043e-01 1.881257040856939566e-01
1.362828035680296868e-01 9.536919822628048271e-01 7.106430631804715181e-02
4.785032003538929324e-01 9.926478147362436388e-01 1.881257985492003071e-01
6.139241943814603697e-02 9.926479591569367100e-01 1.881257598268864240e-01
8.043321854531531034e-01 1.784654706825176129e-01 1.231730910121110467e-01
5.957768872981120678e-01 1.784654887795592282e-01 1.231725127177309698e-01
3.872213929948115640e-01 1.784654192939145734e-01 1.231728712154933486e-01
1.786660512038443227e-01 1.784655148741941255e-01 1.231726304641622277e-01
9.846322669933300631e-01 2.861607451401706331e-02 1.231720739932561093e-01
7.760767079420900494e-01 2.861649971564374229e-02 1.231728998950174653e-01
5.675213202835066584e-01 2.861650672317458260e-02 1.231727847658032754e-01
1.288783078953037453e-02 1.784655072101104245e-01 1.231715162778329459e-01
3.589659652442993565e-01 2.861656220636878481e-02 1.231726050205147471e-01
9.604288544946770756e-01 9.101537177009968449e-01 1.722382484820803306e-01
7.518734700436106033e-01 9.101541761678116904e-01 1.722383660994324106e-01
5.433182120215078736e-01 9.101541330177513878e-01 1.722378569510982782e-01