POSCAR from GenerativeModels
1.0
2.000000000000000000e+01 0.000000000000000000e+00 0.000000000000000000e+00
0.000000000000000000e+00 2.000000000000000000e+01 0.000000000000000000e+00
0.000000000000000000e+00 0.000000000000000000e+00 2.000000000000000000e+01
Al As At B Ba Be Bi Br C Ca Cd Cf Cl Co Cr Cs Cu Dy F Fe Fm Fr Ga Gd Ge H Hg Ho I In Ir K Kr Li Md Mg Mn Mo N Na Ni No O P Pm Rb Ru S Sb Sc Se Si Ta Tb Te Th Ti Tl Tm U V W Xe Zn Zr
4 1 5 8 2 8 1 1 16 5 4 1 44 11 2 9 4 3 30 8 3 4 6 4 4 176 1 1 1 4 2 16 29 47 11 15 7 1 6 16 5 2 15 10 1 16 3 19 2 15 3 15 2 1 1 1 12 2 3 2 20 1 8 14 1
Direct
7.842825409311755536e-01 3.767381430232918937e-01 0.000000000000000000e+00
2.149586222113722966e-01 1.355590647963222928e-02 1.799669118060858164e-01
6.325190450525730590e-01 3.223044691774996640e-01 0.000000000000000000e+00
7.501962767187795311e-01 5.423850194385607670e-01 0.000000000000000000e+00
4.129587666996916706e-01 8.326512494084581384e-02 4.505270857858666433e-01
4.688655279843203516e-01 3.692290732795515673e-01 0.000000000000000000e+00
8.876938426325851061e-01 6.741627458158704345e-01 0.000000000000000000e+00
6.168284815057942794e-01 4.185360117836447458e-01 0.000000000000000000e+00
6.118885616259954752e-01 1.610112487890257293e-01 0.000000000000000000e+00
5.955314831906144413e-01 3.831829549898158049e-01 2.902917811549887706e-02
7.729776377892403350e-01 6.387558079797384103e-01 8.829288261643541968e-02
5.480287647842291276e-01 3.554536230900391391e-01 0.000000000000000000e+00
8.419845494000690600e-01 6.387487710234427407e-01 0.000000000000000000e+00
4.789854622567222275e-01 3.784961577621733797e-01 5.500235890461558919e-01
8.355611068445671918e-01 4.712223775697867989e-01 0.000000000000000000e+00
3.651375950829556238e-01 3.197661479428873799e-01 7.123649716357746131e-01
8.344962153872927946e-01 6.602564728945163885e-01 1.876089970906162918e-01
-9.407395987227951117e-02 7.014359458687331461e-01 0.000000000000000000e+00
2.064884546452623315e-01 2.084783182979466076e-01 5.435812603337262239e-01
1.349718061426829152e+00 6.709992208134140101e-01 0.000000000000000000e+00
9.810932539918311157e-01 6.038277250617724023e-01 0.000000000000000000e+00
5.923572250809875372e-01 3.539187508175851704e-01 0.000000000000000000e+00
4.227737376952673820e-01 5.156042747449931518e-01 0.000000000000000000e+00
4.797565988916068225e-01 4.198833214508383982e-01 0.000000000000000000e+00
5.528652337367917502e-01 5.914091173213392727e-01 0.000000000000000000e+00
3.685884085434272261e-01 5.600847565383902937e-01 0.000000000000000000e+00
6.297188516456246887e-01 5.292800862257009964e-01 0.000000000000000000e+00
4.745882118307507280e-01 5.722541574656080376e-01 0.000000000000000000e+00
2.482475790672107330e-01 5.728570190845538868e-01 4.899699972703039919e-01
4.521577021456939516e-01 1.596317795634052406e-01 3.929534719871734527e-01
3.084957307233089363e-01 4.082464560472929271e-01 0.000000000000000000e+00
9.132524453124765129e-01 6.423760045720596779e-01 0.000000000000000000e+00
6.166636261679708797e-01 7.826493659396378533e-01 1.960964965434862650e-01
6.458514264044276088e-01 4.733253970366502195e-01 0.000000000000000000e+00
4.090479912250133410e-01 3.860290077277910292e-01 0.000000000000000000e+00
4.138528661985245716e-01 4.303847615730624909e-01 3.282105699861106451e-01
1.029772134919952897e-01 5.249534710847074681e-01 3.067331885125277324e-01
4.062264436452232008e-01 7.257572175992765828e-01 0.000000000000000000e+00
6.406707463028153970e-01 -5.753894287318450651e-02 3.887873297891339952e-01
3.663236555574361786e-01 2.925798085776440960e-01 0.000000000000000000e+00
4.768911432484224111e-01 4.010158661575098371e-01 0.000000000000000000e+00
4.593660742595293556e-01 3.859539237218830854e-01 4.039627825438127928e-01
4.921150094433310862e-01 1.750080813006822389e-01 1.665013852535862648e-01
3.820531099715253065e-01 1.505099243812482168e-01 3.247034047224857112e-01
2.048271148989417867e-01 3.807780262176033714e-01 0.000000000000000000e+00
3.771717396859157745e-01 3.565709288725567028e-01 6.457930352648951766e-01
2.928231083637777843e-01 5.671398513949151843e-01 3.321078041004216219e-01
7.232514438724151340e-01 5.621088257327423454e-01 0.000000000000000000e+00
1.719053000979003931e-01 4.526687244468385884e-01 0.000000000000000000e+00
5.870627239802161945e-01 5.329975268978213165e-01 0.000000000000000000e+00
5.585113004104789169e-01 7.129768859930580849e-01 0.000000000000000000e+00
-4.033027861527749280e-02 5.997949744608946920e-01 0.000000000000000000e+00
4.442492907535657842e-01 4.680681968522291125e-01 3.149206007671885299e-01
5.438605290101035106e-01 8.404379829626208442e-01 0.000000000000000000e+00
9.239587694954445318e-01 5.787528165820136072e-01 0.000000000000000000e+00
4.555833166297241776e-01 3.982404364521872075e-01 0.000000000000000000e+00
7.821742762068817356e-01 5.733574148319170449e-01 4.710356006460872935e-01
4.703137894170803524e-01 3.102202180183709634e-01 0.000000000000000000e+00
4.692507204910351115e-01 6.756107450655572944e-01 0.000000000000000000e+00
6.175540171353025576e-01 3.440400880367948666e-01 0.000000000000000000e+00
3.775894209330383777e-01 3.789464958161694597e-01 0.000000000000000000e+00
6.541307879713951223e-01 2.165278466376987510e-01 0.000000000000000000e+00
4.126111304218245124e-01 3.070998600485139729e-01 0.000000000000000000e+00
4.469864825179161727e-01 6.070781250869652368e-01 0.000000000000000000e+00
4.923755065923003382e-01 5.431656159245248361e-01 0.000000000000000000e+00
6.850173548039361071e-01 4.493689408628523951e-01 0.000000000000000000e+00
2.212124772906838288e-01 6.497582566793794756e-01 0.000000000000000000e+00
-1.138903877353567573e-01 4.835532671562619011e-01 2.695446370102356770e-01
3.715354820897905919e-01 6.229859615205379786e-02 3.006100658067210052e-01
3.478795166907304726e-01 4.952357464729513215e-01 2.968032697004465703e-01
5.978133393363820325e-01 5.561758479642358033e-01 0.000000000000000000e+00
-1.196880428753137604e-01 6.694680476441723371e-01 0.000000000000000000e+00
5.113399599773751358e-01 5.396379528232086997e-01 0.000000000000000000e+00
4.973479192175962460e-01 6.961272963063218633e-01 2.840695574206864027e-01
5.255386792462779511e-02 6.950535097200523094e-01 0.000000000000000000e+00
3.293949586325255474e-01 2.523933473972663766e-01 0.000000000000000000e+00
7.359419729513726471e-01 6.161481104215615900e-02 1.470884806674734868e-01
3.912769674492024841e-01 1.502699206624946715e-01 0.000000000000000000e+00
2.798828500375398765e-01 5.569876817962080562e-01 0.000000000000000000e+00
3.004942145508711082e-01 2.857466856956152323e-01 1.688902580254130203e-01
4.768916261726365846e-01 4.360373917804978294e-01 0.000000000000000000e+00
2.597676387983300916e-01 7.221008265731794218e-01 0.000000000000000000e+00
-3.838368701115515425e-01 1.080178865945170541e+00 0.000000000000000000e+00
3.574692625674749102e-01 6.710288522786991283e-01 0.000000000000000000e+00
4.255556973614926797e-01 4.665951055831475403e-01 0.000000000000000000e+00
6.082242630851395493e-01 5.947215238577020502e-01 0.000000000000000000e+00
2.631892186062401162e-02 4.233076485173870029e-01 0.000000000000000000e+00
4.595434759837282446e-01 5.874079515761195802e-01 0.000000000000000000e+00
1.323145839904977805e-01 1.846550050202262483e-01 1.606484038129105674e-01
8.158385102282276202e-01 5.476301777817295102e-01 0.000000000000000000e+00
6.267789460869988005e-01 3.234644907037871331e-01 0.000000000000000000e+00
3.232864751377244605e-01 1.031887529433803685e-01 3.349612147325262690e-01
1.060442999718123058e-01 4.755820520376836669e-01 0.000000000000000000e+00
8.330359787934347171e-01 6.119652690945831530e-01 6.564190960340562375e-01
-2.033234725196577664e-01 7.922199327523311574e-01 0.000000000000000000e+00
6.297125483096386311e-01 3.760148785046795172e-01 0.000000000000000000e+00
1.158941320554595977e+00 3.831017394052551595e-01 0.000000000000000000e+00
6.508290024149228081e-01 4.363532568417178847e-01 5.380429324384917722e-01
6.880328949860246013e-01 5.395840639927561577e-01 2.119020639336784972e-01
-4.781511039214225711e-02 5.977069278425077847e-01 0.000000000000000000e+00
2.382880523314802046e-01 5.092869307272563928e-01 0.000000000000000000e+00
7.439461813350165542e-01 5.928165892158528960e-01 3.767648387982944769e-01
2.290485048282577818e-01 1.497048759825521103e-01 0.000000000000000000e+00
4.559717578360753532e-01 4.351575095760434886e-01 0.000000000000000000e+00
3.839067305257019003e-01 2.740473949904143058e-01 0.000000000000000000e+00
3.423116767319129838e-01 5.615019868853455831e-01 3.629616874864063369e-01
7.127878709635240284e-01 4.719071179608615996e-01 0.000000000000000000e+00
3.482356924363935180e-01 6.233788417603421950e-01 0.000000000000000000e+00
8.293623035251072029e-01 3.863118074818230330e-01 0.000000000000000000e+00
1.960757833231046021e-01 2.444275048132575900e-01 0.000000000000000000e+00
1.781717333437063955e-01 5.596784935709754327e-01 0.000000000000000000e+00
9.233195709213575242e-01 1.815334341747623093e-01 2.716536616089314515e-01
4.449138131582157651e-01 6.772778388323227317e-01 0.000000000000000000e+00
3.276067034770457909e-01 6.038068249080557059e-01 1.773696843271731494e-01
2.057825534724888605e-03 7.402403766545213593e-01 0.000000000000000000e+00
3.819692851865692518e-01 4.746957342141533420e-01 0.000000000000000000e+00
5.200453792616331894e-01 3.112525941014898656e-01 0.000000000000000000e+00
1.667655047845237881e-01 4.253079427417212344e-01 5.095183724218179666e-01
7.089496438040653326e-01 4.257683685876696433e-01 0.000000000000000000e+00
5.433081637115410034e-01 4.146367579165273209e-01 2.447224579597624405e-01
1.420598678137497961e-01 4.381034599154324249e-01 0.000000000000000000e+00
4.724220610853075986e-01 3.776079435547576857e-01 0.000000000000000000e+00
2.338297471963139973e-01 4.796889257813123919e-01 0.000000000000000000e+00
5.358299094332903412e-01 4.505215710837118248e-01 3.200601092547886717e-01
6.966344220748026395e-01 5.215666913875917077e-01 0.000000000000000000e+00
3.464811452307148265e-01 1.873764453494426441e-01 3.171160467848646025e-01
6.838231028046948268e-02 4.766189130551296005e-01 0.000000000000000000e+00
3.044937154911013799e-01 5.192636151858577298e-01 0.000000000000000000e+00
5.361275642584709678e-01 4.740438921010550199e-01 0.000000000000000000e+00
4.289898795655706643e-01 3.847546825222639688e-01 0.000000000000000000e+00
6.008991463551729417e-01 4.026254635928754322e-01 0.000000000000000000e+00
4.921007927244592794e-01 5.519804711801857833e-01 0.000000000000000000e+00
6.267038845427995719e-01 4.852748559944910500e-01 0.000000000000000000e+00
5.284978472095892554e-01 4.713609770313405001e-01 0.000000000000000000e+00
5.212817842946571023e-01 -1.052184174135728512e-02 3.339163921122183520e-01
2.886666299908695610e-01 1.033940495931160442e-01 5.071624248453588946e-01
4.863678794798200755e-01 4.291201453709263536e-01 0.000000000000000000e+00
5.710741532993131031e-01 3.400082418186669564e-01 3.436200094543567785e-01
4.970348970871922845e-01 4.813834101570675372e-01 0.000000000000000000e+00
4.589690708095843785e-01 4.475068778544941672e-01 0.000000000000000000e+00
6.910928648612753022e-01 1.915333794915328181e-01 3.476412841641896012e-01
7.016938503749234890e-01 4.267287016473084726e-01 0.000000000000000000e+00
7.408810005290703549e-01 7.703810401490063242e-01 3.593950368247094129e-01
5.352951370761597216e-01 2.705070610458331082e-01 0.000000000000000000e+00
4.240946476965723466e-01 6.430099036557630487e-01 1.067831438687849577e-01
8.148978432347355749e-01 6.368042223062437834e-01 0.000000000000000000e+00
4.577624667948327897e-01 6.493579371135329570e-01 0.000000000000000000e+00
2.849511993504454388e-01 3.761987659484433699e-01 0.000000000000000000e+00
4.933854379634645682e-01 6.288011756597140511e-01 3.365292608023571219e-01
7.945567309204576434e-01 2.921598159464914302e-01 0.000000000000000000e+00
5.892362607401692154e-01 8.583922093208262716e-02 4.499677879139954984e-01
5.456036586003671918e-01 5.997145938270933563e-01 0.000000000000000000e+00
5.815519675953521039e-01 5.445897324677323459e-01 0.000000000000000000e+00
6.787310628617193586e-01 3.305110294466219178e-01 3.652825805784734037e-01
3.786316605216288878e-02 4.687071830736179168e-01 0.000000000000000000e+00
3.668846821383551227e-01 4.198536627227313911e-01 0.000000000000000000e+00
9.201981678618166294e-01 4.048362658492101751e-01 0.000000000000000000e+00
3.627356260231625606e-01 1.553240175923765731e-01 5.422715036512898434e-01
2.559667372974466781e-01 3.950944651623120585e-01 4.648214067547016271e-01
3.470827940373160114e-01 1.688016812565635849e-01 2.753768653217278928e-01
4.168493673199613614e-01 5.472576376595940095e-01 6.955994221080753492e-01
2.719955878516469028e-01 1.129181611239838956e-01 0.000000000000000000e+00
7.865104298243021930e-01 2.293697091296675872e-01 6.365891311295868160e-02
9.808410151065587446e-01 3.632008517413072290e-01 0.000000000000000000e+00
3.511839583866831482e-01 5.374005796363142684e-01 0.000000000000000000e+00
2.232719895910684205e-02 7.966022983483806996e-01 0.000000000000000000e+00
4.137294013691636962e-01 1.677418697288370897e-01 0.000000000000000000e+00
2.906577259203355634e-01 4.829692274233621241e-02 2.357485141987353261e-01
7.660395764064671376e-01 6.944106224517887505e-01 1.698994598126886135e-01
1.030901099362669049e+00 4.711217317795206583e-01 0.000000000000000000e+00
1.528737178884647108e-01 2.813266374714915585e-01 1.051426181873961196e-01
5.021959354241022355e-01 5.967581415850646831e-01 1.408362871988158016e-01
5.300119439106952823e-01 -2.341549894964001233e-02 0.000000000000000000e+00
2.066587241094216543e-01 4.493174444942497070e-01 0.000000000000000000e+00
6.820193325504391169e-01 5.047845581936949433e-01 0.000000000000000000e+00
1.009154927186920458e+00 6.825092388121952736e-01 0.000000000000000000e+00
8.957337165039256366e-01 7.356502469770669350e-01 3.568740670030023932e-01
7.098377191771546579e-01 5.469608605754870956e-01 0.000000000000000000e+00
3.532872451847810513e-01 5.376050306694956094e-01 0.000000000000000000e+00
6.281297326307376805e-01 4.071235881068124840e-01 3.829970122297646773e-01
4.506352186230049295e-01 5.849026241560786321e-01 0.000000000000000000e+00
5.672183030288868721e-02 7.652860488806081385e-01 0.000000000000000000e+00
7.916858019990002937e-02 5.714393295024672303e-01 0.000000000000000000e+00
3.979339922117737238e-01 4.643863829359493600e-01 0.000000000000000000e+00
4.552168614587779327e-01 2.366869019039474775e-01 1.596526324817101328e-01
3.110612225851792090e-01 6.765764444171356029e-01 0.000000000000000000e+00
1.813837549187813369e-01 5.580832794184243939e-01 1.009968435667689679e-01
5.366306794857961249e-01 3.461477482675860973e-01 0.000000000000000000e+00
2.727575371751385092e-01 4.735629561613707850e-01 6.691907451523908534e-01
3.967053280089267719e-01 7.311381991313714579e-01 3.393428497713821823e-01
9.629181439288125866e-01 1.480682789720433323e-01 7.107468898961840642e-01
5.335526268820295348e-01 2.452736241890260960e-01 2.379664183598826366e-01
4.837237358418180477e-01 4.705598132077168927e-01 0.000000000000000000e+00
6.210399732428073527e-01 4.265038039429824845e-01 0.000000000000000000e+00
2.827196804383793616e-01 7.409982654647631062e-01 0.000000000000000000e+00
4.627377786324609055e-01 4.229653804782129711e-01 0.000000000000000000e+00
-3.415103184197865183e-02 6.534577616830352653e-01 0.000000000000000000e+00
1.309351998683976337e-01 4.911055595624459480e-01 0.000000000000000000e+00
-9.915970798599516023e-02 6.630055411493712691e-01 0.000000000000000000e+00
6.215533686212627584e-01 6.644990224857281191e-01 0.000000000000000000e+00
6.336722486648928010e-01 1.882782786844260370e-01 0.000000000000000000e+00
5.991739561927817981e-01 4.202749746450507029e-01 0.000000000000000000e+00
8.734896947816745971e-01 4.543098016158431118e-01 0.000000000000000000e+00
6.450347505215818789e-01 4.907090910163121045e-01 5.045902413593195135e-02
1.577759617635956513e-01 6.217060618136674988e-01 2.567814598761710698e-01
8.013320780799496612e-01 5.981725422482149224e-01 0.000000000000000000e+00
2.544552115798823788e-01 3.917218345360685694e-01 0.000000000000000000e+00
4.616465817239925329e-01 2.139704051329699430e-01 3.999213451300011046e-01
5.397257811529464488e-01 6.755553596332642963e-01 0.000000000000000000e+00
8.457453411935702547e-01 5.061185741193948706e-01 0.000000000000000000e+00
7.219185577269048304e-01 4.627685399830958612e-01 0.000000000000000000e+00
6.475584398548249743e-01 4.932919779599025389e-01 5.097735638004686765e-01
8.177908514707502574e-01 5.568096462765801391e-01 0.000000000000000000e+00
4.954689125514719628e-01 3.477882111628947115e-01 0.000000000000000000e+00
7.292948031909363138e-01 6.457771473049953581e-01 0.000000000000000000e+00
4.652515766220393090e-01 4.710810566148857514e-01 0.000000000000000000e+00
6.971722872911905178e-01 3.604494789103238617e-01 4.809988067880968110e-01
5.748851306710766051e-01 4.649601986280400556e-01 0.000000000000000000e+00
3.275953849528412398e-01 6.387659955607789541e-01 0.000000000000000000e+00
2.278730649598750269e-01 6.193434985745853716e-01 0.000000000000000000e+00
6.257221979072081774e-01 3.196283415715186482e-01 2.077756333355216256e-01
4.858555788221712302e-01 2.878595677930336771e-01 3.879732633155025256e-01
8.481955291713536571e-01 5.425333985974699624e-01 0.000000000000000000e+00
1.146113597353418667e-01 2.345870584275567827e-01 1.498307771815512446e-01
4.303426779376173794e-01 4.761736617757922341e-01 0.000000000000000000e+00
5.190182534559603100e-01 4.178644581023358562e-01 0.000000000000000000e+00
5.906240951290441243e-01 4.451591423584162488e-01 0.000000000000000000e+00
1.883087337717691545e-01 4.685823670409267061e-01 3.907463188224904460e-01
6.719902855165090783e-01 3.867139118141509346e-01 0.000000000000000000e+00
1.847281539568308428e-01 4.457129923982832143e-01 4.088829045941817508e-01
5.684775325883547614e-01 4.749110530159184052e-01 0.000000000000000000e+00
6.317987183443392052e-01 6.354959324110196484e-01 0.000000000000000000e+00
4.464351858028217102e-01 8.649286555973381141e-01 0.000000000000000000e+00
1.626955230276952991e-01 7.122255301123516791e-01 0.000000000000000000e+00
5.667189874309693787e-01 4.400029127966291753e-01 0.000000000000000000e+00
3.528715336970058569e-01 2.258485319501427613e-01 1.481821825460658548e-01
7.186676263752111993e-01 5.119762121811216593e-01 8.742708773574525694e-02
5.654778190050396836e-01 5.139603385937319135e-01 0.000000000000000000e+00
6.385939322878457780e-01 5.482883053064128154e-01 2.836828194028029326e-01
8.709002653869607480e-01 6.332606774913628334e-01 0.000000000000000000e+00
5.254662304594095446e-01 3.665264321408574499e-01 0.000000000000000000e+00
5.008247267614129861e-01 6.585166556832219298e-01 0.000000000000000000e+00
6.288287287846576756e-01 8.363685031995565788e-01 0.000000000000000000e+00
6.679405141953937974e-01 2.770080601582117774e-01 5.942290372078964378e-01
5.650940086892778380e-01 5.576515347486987739e-01 0.000000000000000000e+00
6.687873525992387158e-01 3.483332497639699543e-01 0.000000000000000000e+00
7.278350023424243753e-01 -5.530667466141725441e-02 4.772607937280615165e-01
2.840129424213904130e-01 5.354164138288511898e-01 4.377135810678072225e-01
1.527131651106500287e-01 6.202233391939443452e-01 0.000000000000000000e+00
7.217178361257955421e-01 6.653446972189654973e-01 6.102424100572684251e-01
4.653394826501344728e-01 5.405877167361198277e-01 0.000000000000000000e+00
3.633143096755894197e-01 4.699295220840542520e-01 0.000000000000000000e+00
1.924804124652811366e-01 8.486864111290772783e-01 2.952922109427158492e-01
8.447318083531927257e-01 4.117883220367920538e-01 1.532391765008971340e-01
9.111204239677898054e-01 7.023143619803962068e-01 0.000000000000000000e+00
4.786271873195724336e-01 3.157143791097373198e-01 4.430408160362706571e-01
2.765766051053799579e-01 5.831233436715669294e-01 3.709112046563673992e-01
4.332844809993345869e-01 6.584686064212397216e-01 6.479785221728064926e-01
6.286148632316719276e-01 4.130847742749712559e-01 0.000000000000000000e+00
6.807061214205292199e-01 3.130683175789258366e-01 0.000000000000000000e+00
8.402559846531251209e-01 6.307877548127238665e-01 3.303706558591803510e-01
4.738627344878312275e-01 3.777002677463030533e-01 0.000000000000000000e+00
5.015782301091081807e-01 6.057939366002934589e-01 0.000000000000000000e+00
4.950842866899578532e-01 2.018065643472204407e-01 0.000000000000000000e+00
9.915839723549046969e-01 3.443169193201776057e-01 3.755012236581001250e-01
4.385487849536682248e-01 2.808332053720801191e-01 0.000000000000000000e+00
3.861235302476611064e-01 2.601831499302862394e-01 2.571216757722493140e-01
4.977666929186626010e-01 5.483478577676376142e-01 0.000000000000000000e+00
8.217673371874241184e-01 2.697488144066775284e-01 3.381538740869519666e-01
3.302090319353772063e-01 5.385714540361468128e-01 0.000000000000000000e+00
2.702524017981011717e-01 5.177481959793170940e-01 0.000000000000000000e+00
9.024945720350979750e-01 5.573709819247726349e-01 4.653559763472188138e-01
5.412924862169001816e-01 4.827753446878697563e-01 0.000000000000000000e+00
4.507350404944656663e-01 3.844728199643374644e-01 0.000000000000000000e+00
6.134208483519248967e-01 4.112187760357490784e-01 0.000000000000000000e+00
3.032888378883615843e-01 3.587131780069223730e-01 0.000000000000000000e+00
5.849626433133878756e-01 4.339199028385836154e-01 3.169403775840460291e-01
4.593317071209794822e-01 4.803057155175818327e-01 0.000000000000000000e+00
4.188616170237864367e-01 7.385357029955997854e-01 3.545550385464384391e-01
3.474152875891229897e-01 9.361747163996714249e-02 5.149054256630913873e-02
5.954802269956513960e-01 1.706388212157547990e-01 1.820128744245879115e-01
4.632210452063321160e-01 3.683004426448297508e-01 0.000000000000000000e+00
2.062241274278775460e-01 7.159475477956733780e-01 6.020091238717032445e-01
5.460296119303641449e-01 2.469552670987438248e-01 2.242757826168793045e-01
5.630136768171641881e-01 4.983222498219870289e-01 1.509830766073764208e-01
8.487179398492460392e-01 4.592015888739524598e-01 4.540594317448576334e-02
5.379070697523160582e-01 4.252350003989622262e-01 0.000000000000000000e+00
4.968639213156939016e-01 5.437004442307514784e-01 0.000000000000000000e+00
7.395381855625050571e-01 4.338870755290831216e-01 0.000000000000000000e+00
2.671204594230369711e-01 7.308697422444371261e-01 0.000000000000000000e+00
6.925585288997998523e-01 6.466108977831652727e-01 4.157130430700355372e-01
2.809341293848246490e-01 7.160219516306461918e-01 0.000000000000000000e+00
2.992563641336800639e-01 5.851845628624623430e-01 0.000000000000000000e+00
3.365742961513478182e-01 5.087407020968649496e-01 0.000000000000000000e+00
5.716073664238288110e-01 2.820284659960154983e-01 2.590798893892640731e-01
6.682553171143346127e-01 3.373072289811112068e-01 0.000000000000000000e+00
1.832059006301526294e-01 3.228347709912167129e-01 2.307337526019446194e-01
7.667073746086529029e-01 4.446096664235938967e-01 0.000000000000000000e+00
1.962395687305378278e-01 6.874643418197448064e-01 0.000000000000000000e+00
3.195643485780643722e-01 5.107022055998845511e-01 3.153890865619922712e-01
6.335095814438362893e-01 4.189189665507653260e-01 0.000000000000000000e+00
2.790023267486960723e-01 5.733278846183661459e-01 1.030059194300434466e-01
3.084003263588346311e-01 5.503706759951246807e-01 0.000000000000000000e+00
3.859603348579349058e-01 4.059082241982874262e-01 4.438241943341705298e-01
3.393171491676669760e-01 -2.403048161425913598e-02 0.000000000000000000e+00
8.578985184487253335e-01 6.021416304483956372e-01 0.000000000000000000e+00
5.015609138424805824e-01 3.974637824174744871e-01 0.000000000000000000e+00
4.685914035574600955e-01 1.004572523540614437e-01 0.000000000000000000e+00
3.711251290240179523e-01 5.436053088858745497e-01 0.000000000000000000e+00
1.025793195553558190e-01 6.127238511750094929e-01 0.000000000000000000e+00
7.099325850758833045e-01 -9.620472727761963938e-02 0.000000000000000000e+00
3.664711001102691768e-01 4.269381807172576426e-01 0.000000000000000000e+00
1.667473989729135742e-01 6.779181590347547193e-01 0.000000000000000000e+00
2.708765512438151557e-01 5.916491380694862690e-01 8.524876654230029160e-02
5.836872262940678846e-01 1.865082812822025371e-01 3.079382087011841573e-01
3.650530573927460720e-01 7.002448006947566972e-01 0.000000000000000000e+00
3.919461184417628585e-01 5.587803967385099879e-01 0.000000000000000000e+00
6.617777891943001922e-01 2.235544872321113541e-01 1.745751244636010169e-01
9.643460067201972130e-01 4.821560792340716661e-01 3.707097995769585985e-01
6.505819101183529796e-01 8.092468448000476045e-01 4.579692456247468346e-01
5.482249146322958344e-01 4.385583905395853410e-01 0.000000000000000000e+00
7.778797672215961301e-01 4.950049926939723566e-01 4.861409889414363139e-01
4.335139178417436456e-01 7.882494970808282542e-01 2.678643407776271079e-01
9.849825510519439886e-01 4.501604178589883043e-01 0.000000000000000000e+00
8.058910473747329384e-01 5.592887442229731443e-01 0.000000000000000000e+00
4.088763129197020563e-01 4.544963485216293453e-01 0.000000000000000000e+00
4.650424257166065889e-01 4.443611314291074921e-01 0.000000000000000000e+00
5.415039084064875441e-01 6.387396978209098908e-01 0.000000000000000000e+00
1.008900332306809977e+00 7.769616918383258630e-01 0.000000000000000000e+00
5.258166191052597860e-01 4.325949323398472490e-01 0.000000000000000000e+00
2.524590693564370270e-01 5.164356535841861939e-01 5.630928400468944162e-01
2.486173312296644511e-01 7.217249773894267584e-01 0.000000000000000000e+00
9.080834870826705041e-01 3.366808171466681987e-01 3.230308461972390965e-01
1.810110870540088124e-01 5.395679963912078936e-01 6.481630742434254522e-01
8.370404152742747517e-01 6.065459965136699161e-01 0.000000000000000000e+00
8.014553630878622492e-01 3.998406136806671451e-01 8.417586392904319315e-02
6.252270365017608134e-01 4.634866364470414668e-01 0.000000000000000000e+00
9.124304068014637004e-01 4.828747128539914168e-01 6.211207324402575614e-01
5.612310266304800788e-01 5.249027639718666371e-01 5.510412922928286106e-01
2.032647080857779009e-01 7.461519647316756654e-01 1.015334696056967578e-01
5.968479708875417122e-01 4.883535269635799203e-01 0.000000000000000000e+00
8.725836441581077407e-01 6.672240472175331449e-01 1.922491865250750553e-01
7.623962370795619448e-01 4.545152804520098400e-01 0.000000000000000000e+00
8.007205875621521418e-01 5.975539979070461083e-01 2.244649774917922835e-01
8.526491144797628818e-01 6.588692791609881416e-01 0.000000000000000000e+00
6.682730518391702956e-01 3.585710509582661354e-01 0.000000000000000000e+00
7.981438437576356959e-01 4.045747549400988685e-01 0.000000000000000000e+00
1.178621117780339622e-01 4.146595012580936990e-01 0.000000000000000000e+00
2.381284339479439183e-01 4.118444786415345060e-01 0.000000000000000000e+00
7.086644940576269924e-01 3.125631756939405426e-01 3.258451749816416720e-01
6.421213786530300949e-01 -8.146031852821988828e-02 2.072061998227383572e-01
8.692272610394845556e-01 6.781125871905288038e-01 0.000000000000000000e+00
4.389317063603370705e-01 5.707435004505385656e-01 4.027989209786246860e-01
6.360815815349258884e-01 5.154768672742520152e-01 0.000000000000000000e+00
1.969227416927685770e-01 5.987125212346429137e-01 0.000000000000000000e+00
8.512338478726315660e-01 6.028685899639086854e-01 1.611730765712759972e-01
6.783986836675421905e-01 4.054529897470577904e-01 6.319757233458035417e-01
5.567490379382378229e-01 4.226992061302292658e-01 0.000000000000000000e+00
4.312895438751547239e-01 4.713521097948007998e-01 0.000000000000000000e+00
3.642416134154746743e-02 3.736745407086154991e-01 0.000000000000000000e+00
6.762704588004663231e-01 5.602038041894920051e-01 0.000000000000000000e+00
5.352093769756774977e-01 4.943931220248929392e-01 0.000000000000000000e+00
1.367289653575347597e-01 2.445155232261005951e-01 0.000000000000000000e+00
4.787002054810785001e-01 3.053938824775264127e-01 3.802616583187523602e-01
3.887242941390033346e-01 3.827298681570403538e-01 1.949349149380150692e-01
2.741036111488259763e-01 4.598814830128570286e-01 2.460349086305293476e-01
5.418994912403950481e-01 7.306112435261171711e-01 0.000000000000000000e+00
1.685605950375106410e-01 5.527383885178721590e-01 0.000000000000000000e+00
6.602591845302926421e-01 5.396389518052716605e-01 2.090400355132231436e-01
9.735821269853408566e-01 4.400278964407584592e-01 7.154474283340866991e-01
3.750802129383030703e-01 6.270182231870863321e-01 0.000000000000000000e+00
4.791056786673598689e-01 5.168035283818590564e-01 0.000000000000000000e+00
2.349370866535583913e-01 5.126564331525297336e-01 0.000000000000000000e+00
4.330167052466338262e-01 3.403266355324876535e-01 0.000000000000000000e+00
5.707017426416176598e-01 4.499275888746836483e-01 0.000000000000000000e+00
5.011785500526528825e-01 3.781963159626953175e-01 4.798842298393894978e-01
6.876335614132859098e-01 3.752348742823446992e-01 0.000000000000000000e+00
1.116663821123209388e-01 6.671027269814255867e-01 0.000000000000000000e+00
4.308932606956450417e-01 1.781479452362979554e-01 0.000000000000000000e+00
2.964764489263032043e-01 6.189557079831514708e-01 0.000000000000000000e+00
7.652919775483316700e-01 4.277005352499259061e-01 0.000000000000000000e+00
3.918822668088816075e-01 4.966009995543338995e-01 0.000000000000000000e+00
5.340766318598809681e-01 2.734956907318197850e-01 0.000000000000000000e+00
4.562861122054082674e-01 2.348283341767369858e-01 0.000000000000000000e+00
2.707290410429139538e-01 3.168542793065023400e-01 0.000000000000000000e+00
7.552289069444603209e-01 5.430587491409796241e-01 0.000000000000000000e+00
6.519109935119671295e-01 5.181675907337888187e-01 0.000000000000000000e+00
3.185588694687495614e-01 5.265176652410872293e-01 4.211519793646074650e-01
8.132596409557639738e-01 4.013546368466763825e-01 3.288955856499014008e-01
6.215720713545761500e-01 6.222180402445732783e-01 0.000000000000000000e+00
2.516777370060345742e-01 5.437141498541059326e-01 0.000000000000000000e+00