POSCAR from GenerativeModels
1.0
2.000000000000000000e+01 0.000000000000000000e+00 0.000000000000000000e+00
0.000000000000000000e+00 2.000000000000000000e+01 0.000000000000000000e+00
0.000000000000000000e+00 0.000000000000000000e+00 2.000000000000000000e+01
Ag Al As At Au B Ba Be Br C Ca Cd Cl Co Cr Cs Cu Dy Eu F Fe Fm Fr Ga Gd Ge H Hg Ho I In Ir K Kr Li Lu Md Mg Mn Mo N Na Nb Ni No O P Pa Pb Pd Pm Pr Pt Ra Rb Re Rh Ru S Sc Se Si Sm Sn Sr Ta Tc Te Ti Tm U V W Xe Y Zn Zr
10 7 5 7 2 10 2 15 3 13 24 7 37 14 3 7 5 1 1 18 9 3 4 16 3 7 280 2 1 4 3 2 18 35 46 5 8 24 8 2 10 19 9 25 5 21 5 2 2 6 9 1 1 3 12 1 4 6 34 13 14 24 2 2 3 4 6 10 12 4 2 25 1 11 3 11 1
Direct
5.420032665746704614e-01 5.032390954334745592e-01 0.000000000000000000e+00
3.145356620710527684e-01 5.219807438278877276e-01 0.000000000000000000e+00
3.611182527514924523e-01 7.011531272134898796e-01 0.000000000000000000e+00
4.240314994280816041e-01 3.826974149865234320e-01 6.433161618176482799e-01
1.590012782108283229e-01 4.610698994368549464e-01 0.000000000000000000e+00
9.471681814048159564e-01 2.001163870731429428e-01 0.000000000000000000e+00
5.509551698759643790e-01 2.560395841115510329e-01 2.695972964490283008e-01
4.751074515954245570e-01 3.121739001302462624e-01 5.075432036144763570e-01
1.024512243925456145e+00 9.416107193429024136e-02 1.526625528712852731e-01
7.214909575443875234e-01 4.087748666502847295e-01 2.198107839569081179e-01
5.672646749843822667e-01 3.736157476280312917e-01 0.000000000000000000e+00
4.905553679140517431e-01 3.037791804344486257e-01 5.352326555542188391e-01
9.354890837037621587e-02 3.948622349792570985e-01 5.329966626457605106e-01
5.487096542508274055e-02 5.723193554427573604e-01 0.000000000000000000e+00
4.367279404470547632e-01 6.389754474933181383e-01 8.935808145689583259e-02
4.327573579120952418e-01 3.740822395537957146e-02 0.000000000000000000e+00
7.332953453654638132e-01 6.544788268730551417e-01 6.146767614426686954e-01
7.377783242732783853e-01 4.302007450403244615e-01 4.747533741181024780e-01
5.821193822939070284e-01 8.861325329922820071e-02 3.054909504626801553e-01
5.948351344249905859e-01 4.765888512723162052e-01 0.000000000000000000e+00
5.880801943942637333e-01 4.300948126214688694e-01 0.000000000000000000e+00
6.759928867667013286e-01 2.381693653594260107e-01 0.000000000000000000e+00
7.703675406470927856e-01 5.963187392036809475e-01 0.000000000000000000e+00
4.816147704632990356e-01 6.798758188858677887e-02 0.000000000000000000e+00
7.443602606973357405e-01 5.892046139942345162e-01 0.000000000000000000e+00
6.052242650308705674e-01 4.874888844262688092e-01 0.000000000000000000e+00
7.510365039516699870e-01 5.039560263007863972e-01 2.721361609926769010e-01
2.756459676687497140e-01 1.631781208353919599e-01 4.463827976564069822e-01
5.946327558895369014e-01 2.044430404750542385e-01 3.419601084634986687e-01
5.777686784360066552e-01 6.606373609798075197e-01 0.000000000000000000e+00
8.964190337442643486e-01 7.423459974531237959e-01 0.000000000000000000e+00
6.479794112438934661e-01 5.069215752546097908e-01 0.000000000000000000e+00
1.444106218294514132e-01 2.124467219292009990e-01 0.000000000000000000e+00
8.940656543383327381e-01 3.936368769291574976e-01 0.000000000000000000e+00
9.360175845453038157e-01 6.608617732701929093e-01 0.000000000000000000e+00
6.185773198436166354e-01 2.553164323275958214e-01 0.000000000000000000e+00
3.109789669843301407e-01 2.382401690382470738e-01 0.000000000000000000e+00
2.577856570879883957e-01 3.329534212479157151e-01 0.000000000000000000e+00
6.952006823253569223e-01 7.881809912531889672e-02 2.869077729301501289e-01
4.596776874664345591e-01 6.489000943348359751e-01 0.000000000000000000e+00
4.650765032003252308e-01 3.421619056757307931e-02 3.881458586147576995e-01
4.871991463954965518e-01 1.639691567618103418e-01 0.000000000000000000e+00
3.420597544296726245e-01 4.323176485450206386e-01 3.976529561134853896e-01
7.297577048718468795e-01 2.940886336701675763e-02 0.000000000000000000e+00
3.590890577337515488e-01 4.476701063912753575e-01 0.000000000000000000e+00
6.195784726724532510e-01 3.579951309284532535e-01 4.396059526505157189e-01
4.865029429981391207e-01 4.576907174266622302e-01 1.258667731234330844e-01
4.954716013597426638e-01 3.722815335923141955e-01 0.000000000000000000e+00
6.170665467918881042e-01 -1.745228849612383559e-01 3.782207226151421686e-01
3.415118067254273582e-01 1.347456719321097340e-01 3.263924311799067945e-01
6.664605876238707260e-01 6.215216626757869012e-01 0.000000000000000000e+00
8.080736772548662294e-01 2.656444392140265842e-01 0.000000000000000000e+00
4.393386721768887115e-01 5.331883391149049300e-01 0.000000000000000000e+00
7.092876468181349425e-01 5.978737187341416348e-01 0.000000000000000000e+00
4.895206774563171104e-01 4.646711777726340031e-01 0.000000000000000000e+00
7.279402002959414197e-01 2.413994534139765058e-01 2.948083547602415866e-01
3.585500122321063632e-01 5.062580752098294612e-01 5.725216152550834936e-01
4.775484308269402067e-01 7.738555203090049517e-01 0.000000000000000000e+00
5.385281673825556004e-01 2.682360100698590877e-01 0.000000000000000000e+00
-6.929875581862288136e-02 4.248910952675079011e-01 3.157623612530302548e-01
1.981944507442567893e-01 2.215468716742514665e-01 0.000000000000000000e+00
4.148906529834792689e-01 2.141179721332133745e-01 3.923390802486708129e-01
1.963819494851000158e-01 3.805569054589375000e-01 0.000000000000000000e+00
4.121985179412941402e-01 3.158097352489879217e-01 3.600289557178201205e-01
4.008238691076135840e-01 6.784682448428103196e-01 0.000000000000000000e+00
7.360602684972838983e-01 5.225649789591580996e-01 0.000000000000000000e+00
6.745299278495370254e-01 4.267158258860062059e-01 0.000000000000000000e+00
6.853566968132839277e-01 6.275791103094706669e-01 0.000000000000000000e+00
5.650244742073816662e-01 2.881807739597981310e-01 0.000000000000000000e+00
6.510834261294770053e-01 4.676144952736898119e-01 0.000000000000000000e+00
4.622009213076287981e-01 3.561890406856141889e-01 0.000000000000000000e+00
3.011536724372272378e-01 2.848442380192067747e-01 2.848695447857276797e-01
3.619881988983328913e-01 5.069244476070386973e-01 0.000000000000000000e+00
1.466353230893201465e-01 4.996824155389036903e-01 6.851606570323096612e-01
4.576965024656298731e-01 2.891464520559677842e-01 0.000000000000000000e+00
5.129630613629002633e-01 8.436224428566352351e-02 0.000000000000000000e+00
2.810339897147720034e-01 1.950012785390007330e-01 0.000000000000000000e+00
7.051306708281988023e-01 1.970828458433984132e-01 0.000000000000000000e+00
3.144409401557868300e-02 5.492776958275353838e-01 2.878022909090636183e-01
7.231920985014926861e-01 2.763790275073705338e-01 0.000000000000000000e+00
2.788135489048877425e-01 5.335781197077785754e-01 0.000000000000000000e+00
6.226182760259986182e-01 3.799444124407452827e-01 2.639682510933688553e-01
2.292751278853104591e-01 3.573526967227074191e-01 4.028654805684497298e-01
4.777757435749974135e-01 6.381967172600966354e-02 0.000000000000000000e+00
4.941020735943015829e-01 7.126869231937948967e-01 3.832606208174427209e-01
5.809830218526016443e-01 5.861487489286593133e-01 1.905082121009349372e-01
2.357626638568479649e-01 5.706297961621030757e-01 7.357741681810473500e-01
4.120405190916707205e-01 4.546103690709435430e-01 2.681120590852043017e-01
8.024946372577330678e-01 3.924931731644620836e-01 0.000000000000000000e+00
7.497366901627311453e-01 4.546957792336080439e-01 0.000000000000000000e+00
3.804617505389411569e-01 2.386227753677861996e-01 1.844050504595443618e-01
4.123164658377340697e-01 6.847670223520490040e-01 3.624051268246631929e-01
5.013551276600086704e-01 3.552290295400877262e-01 0.000000000000000000e+00
2.598575224549788398e-01 4.826826189971564762e-01 1.343733662262436290e-01
3.775934652276629055e-01 4.139184690317319060e-01 4.643792264015651483e-01
4.810001614661052471e-01 3.519123863935533780e-01 0.000000000000000000e+00
9.476565164545353026e-01 3.614731963283313032e-01 0.000000000000000000e+00
2.628179675058210929e-01 6.115925699816423533e-01 3.459418356104655423e-01
3.261593518770984357e-01 2.966921997518877641e-01 2.939439827373535596e-01
5.121803838955436561e-01 1.173411187764681340e-01 2.769519974923468908e-01
7.245382300005902554e-01 6.025169954508341474e-01 0.000000000000000000e+00
6.955532762027342164e-01 4.303353245775478619e-01 4.409925363349760374e-01
3.384184825158348398e-01 -1.452105060507786760e-01 3.479751920633022966e-01
5.841966075919929891e-01 3.404131534757731670e-01 0.000000000000000000e+00
3.619810377615246821e-01 3.773417256637856543e-01 2.472043174531003418e-01
4.604840193767947287e-01 4.960055054705903022e-01 3.988066148246236509e-01
4.217120755355878714e-01 2.105477143994016753e-02 0.000000000000000000e+00
5.212483708660829995e-01 4.679327800482486754e-01 5.071839240911898417e-01
1.949340494933671231e-01 4.406926747207036144e-01 2.200681785560373305e-01
3.392136787621038430e-01 2.799071658402529916e-01 0.000000000000000000e+00
5.331412554638634838e-01 5.270925219335569345e-01 2.935360953243615345e-01
7.817856343325861879e-01 6.116979816677347026e-01 0.000000000000000000e+00
6.929959171832710263e-01 6.284470832660085104e-01 0.000000000000000000e+00
1.249368935395067659e+00 5.587563373016809498e-01 0.000000000000000000e+00
2.071777773844396542e-01 -8.978143953259221099e-02 6.167054318128527557e-01
6.239439644212274594e-01 4.197508513573122713e-01 0.000000000000000000e+00
7.734124566895181907e-01 -1.403619284693395919e-01 3.147293371810809814e-01
6.789424322906379983e-01 5.443942069917976356e-01 0.000000000000000000e+00
1.926328736719092882e-01 6.050239514627898663e-01 2.776341064210542386e-01
5.804586697754444691e-01 3.492999251818529327e-01 0.000000000000000000e+00
5.224083857726908864e-01 4.128811584323335282e-01 0.000000000000000000e+00
4.711193194266760642e-01 -1.563863563881100482e-01 0.000000000000000000e+00
2.869089253945439344e-01 2.089510562245001646e-01 0.000000000000000000e+00
3.455822121659632984e-01 1.011374201798461270e+00 0.000000000000000000e+00
-2.649011922573261124e-01 2.921460988785140600e-01 0.000000000000000000e+00
4.980074034705121999e-01 2.544924392150805792e-01 0.000000000000000000e+00
5.755375846220081026e-01 3.530144014776119832e-01 0.000000000000000000e+00
3.628458390900590746e-01 2.799701180895930452e-01 3.288096801025673921e-01
6.615698281553401561e-01 4.698865055780354627e-01 0.000000000000000000e+00
7.379579711462331826e-01 1.522221715618694571e-01 4.198493154457361154e-01
7.919516353042471701e-01 2.780667183541796206e-01 3.229735855001132361e-01
5.616923338010278988e-01 1.761740486264486982e-01 0.000000000000000000e+00
2.301456520390026128e-01 4.560850715840160108e-01 3.233566280796940084e-01
7.718630679224482982e-01 4.476136344690226920e-01 4.704548773871737311e-01
1.790927961981430006e-01 7.465984145433274266e-01 3.458575246278142723e-01
6.248674980427115777e-01 3.860942934343525312e-01 0.000000000000000000e+00
2.881329176272158232e-01 6.202831929367960129e-01 0.000000000000000000e+00
6.910242005408175903e-01 2.479452757637042870e-01 2.372423881567456982e-01
5.751094070455633478e-01 4.299207185134684694e-01 0.000000000000000000e+00
6.059729203210382220e-01 4.592361624388778818e-01 0.000000000000000000e+00
7.974446894691816778e-01 6.332865896838678621e-01 0.000000000000000000e+00
4.998394915039605646e-01 2.276682207378343259e-01 4.928214798135794883e-01
7.618366898399502318e-01 4.898206403796527830e-01 2.540711618019864115e-01
4.863255118521467857e-01 2.804829607412124837e-01 0.000000000000000000e+00
3.130642649867028116e-01 9.515802985817511939e-02 0.000000000000000000e+00
-1.440336743477210746e-02 3.119410742784061163e-01 0.000000000000000000e+00
8.884238636753553076e-01 3.179116136633635126e-01 4.658588587766221423e-01
8.037335934818430339e-01 2.819391239968391805e-01 0.000000000000000000e+00
1.124439525390087846e+00 6.825663327377431422e-01 0.000000000000000000e+00
6.845406687941358870e-01 6.204637614479496799e-01 0.000000000000000000e+00
5.465138347389022488e-01 5.659316432357084370e-01 3.337052077592232990e-01
3.862153348556580656e-01 -5.048669709067965528e-02 2.286373179358376362e-01
4.523006736156147678e-01 2.836242293226718392e-01 0.000000000000000000e+00
5.374551265728534366e-01 6.171965249109070406e-01 0.000000000000000000e+00
5.822506183723454853e-01 5.623177074610715698e-01 0.000000000000000000e+00
6.746236577933779621e-01 6.151302013442352390e-01 9.464005165544719933e-02
6.283200786555667161e-01 5.482071280245748301e-01 1.032067237347324973e-01
5.102274104815602840e-01 5.706598275349165084e-01 5.062995043554135988e-01
5.155723782917661646e-01 4.626965268755274252e-01 0.000000000000000000e+00
6.642050405496591203e-01 5.754278050080107176e-01 0.000000000000000000e+00
7.215199437365189539e-01 6.069153753513827354e-01 0.000000000000000000e+00
9.352001479490118507e-01 8.630589808291603271e-01 0.000000000000000000e+00
1.295194334866127672e-01 5.515495018352137846e-01 0.000000000000000000e+00
8.314509426668238445e-01 4.793573028909037248e-01 0.000000000000000000e+00
2.691715440338420251e-01 4.294908599153184348e-01 2.391142730081943224e-01
4.972505398033943980e-01 4.335363342071343329e-01 7.026883579579201733e-01
7.884745453265552539e-01 4.210912788178384769e-01 0.000000000000000000e+00
4.225859559340934268e-01 9.738492400568199425e-02 0.000000000000000000e+00
-1.309836350906963265e-01 6.111252128974637987e-01 0.000000000000000000e+00
5.657072829358308352e-01 -7.037119612216291564e-02 5.476204140311397017e-01
4.016885151262772347e-01 1.956867479580843838e-01 0.000000000000000000e+00
8.771118067653376205e-01 8.224210624072565423e-01 2.135774110441853724e-01
5.270280532910176507e-01 7.601064280526803607e-02 6.727299712749599259e-01
2.376046541710743476e-01 3.397373612893410666e-01 0.000000000000000000e+00
8.419020991181098701e-01 5.034327348194000962e-01 0.000000000000000000e+00
5.087690287684030199e-01 2.220905630212135495e-01 5.788971333514364437e-01
4.839476946173006944e-01 1.703069088806401510e-01 0.000000000000000000e+00
4.597639847977338379e-01 7.426774495116895691e-01 3.444186102764150714e-01
4.119326668770932898e-01 3.244324962858036177e-02 4.252774380054420433e-01
5.414064355754452107e-01 4.114651106519451318e-02 2.700247642188440267e-01
5.269809599030063074e-01 6.712910838299658289e-01 0.000000000000000000e+00
4.300303582868326702e-01 -1.556668504839402445e-01 0.000000000000000000e+00
1.016699273291540973e+00 5.369976647123348990e-01 2.858610253766551423e-01
3.928636835952035167e-01 4.321301245850464046e-01 0.000000000000000000e+00
6.000374908335364132e-01 2.670063270694390534e-01 0.000000000000000000e+00
7.313738436342358540e-01 3.761931915025248374e-01 0.000000000000000000e+00
7.510080491891852894e-01 6.207501281564058448e-01 0.000000000000000000e+00
3.976152116944988713e-01 2.480876102954607809e-01 0.000000000000000000e+00
1.255665037282056584e+00 4.886159456591354644e-01 0.000000000000000000e+00
5.133843700047590053e-01 1.552863626464481284e-01 0.000000000000000000e+00
4.443180971156386327e-01 3.235675207019400590e-01 0.000000000000000000e+00
3.319352545854830083e-01 2.047474304781594645e-01 0.000000000000000000e+00
6.621689112201170069e-01 3.295222903960237648e-01 2.923021455691352521e-01
4.201463049386787718e-01 1.897393258620158063e-01 3.850353572406637337e-01
6.473856957143910851e-01 3.622273592839178047e-01 0.000000000000000000e+00
4.180631085623720544e-01 3.265661471302558905e-01 0.000000000000000000e+00
3.228428699433142368e-01 6.058709569565059461e-01 2.351990841443794000e-01
3.671013944044549948e-01 1.354530938336552248e-01 0.000000000000000000e+00
5.954297390319330807e-01 5.270615155544632335e-01 0.000000000000000000e+00
7.221345056253971606e-01 3.865408579141252909e-01 3.640695421175761393e-01
8.609786714284926035e-01 2.222096070777872523e-01 4.256490012752855989e-01
9.211732048925922456e-01 3.592554169306644285e-01 4.006712675032032545e-01
5.428459662409794717e-01 1.301575453503138746e-01 0.000000000000000000e+00
7.411783637778959211e-01 4.268043502697949076e-01 0.000000000000000000e+00
1.012249646014213189e+00 8.044643142643256306e-01 0.000000000000000000e+00
3.078670750035883419e-01 8.135202344357717053e-02 1.596544241694625166e-01
6.608449252278887354e-01 2.717552884741047947e-01 0.000000000000000000e+00
2.519567463446800160e-01 2.471441829487059927e-01 0.000000000000000000e+00
4.757731311585591261e-01 3.892044940057786118e-01 3.065848595415034961e-01
6.373855186819631369e-01 4.438572818776833628e-01 0.000000000000000000e+00
3.556559590783450187e-01 3.859604108976182335e-01 4.992341282839165562e-01
1.475608109905997001e-01 4.659632910437054854e-01 0.000000000000000000e+00
7.105446931655463594e-01 4.665937924732439512e-01 6.443137436355845793e-01
5.248527280774339943e-01 3.035806387878382528e-01 4.883997176939551821e-01
6.180760561344975645e-01 5.259846560349482614e-01 2.526942690511910783e-01
2.380802999110650520e-01 -2.369382373536255137e-02 4.076396518702787297e-01
7.703177598626241851e-01 5.471689794650936856e-01 0.000000000000000000e+00
8.665839693330286142e-01 5.787032999011461065e-01 0.000000000000000000e+00
4.944712960745012431e-01 3.677515812455515176e-01 0.000000000000000000e+00
6.898567390969031488e-01 6.292251185325639096e-01 0.000000000000000000e+00
1.067971066895099908e+00 7.134198677219830698e-01 0.000000000000000000e+00
5.027141981293919981e-01 5.076418780589925239e-01 2.299539399931085359e-01
-1.573542518280257596e-01 6.162198146554730416e-01 0.000000000000000000e+00
4.933093266169726876e-01 4.667435924169271999e-01 3.224371962871768194e-01
5.534552210687762042e-01 6.238400011546136881e-01 0.000000000000000000e+00
6.907449978695413551e-01 3.583502771144964072e-01 7.046527485780306188e-01
5.647718884081345259e-01 5.914002908559845562e-01 5.576928314174111057e-01
4.761898701785982624e-01 4.561290449782022804e-01 0.000000000000000000e+00
4.358744784265710104e-01 2.108713244663751318e-01 0.000000000000000000e+00
5.602424380228154810e-01 2.141348000304708066e-01 2.595137729956531469e-01
1.207878212860944878e+00 7.415592796064621739e-01 0.000000000000000000e+00
-5.051004781118084708e-02 4.737019014517711568e-01 0.000000000000000000e+00
3.172521096538104546e-01 3.135290088257884911e-01 3.883429716866575454e-01
-1.433906199927106329e-01 5.211256449487530196e-01 0.000000000000000000e+00
4.998333142451212296e-01 2.446789422556912008e-01 0.000000000000000000e+00
3.883901638289409819e-01 3.749079770576571047e-01 2.023804482526783133e-01
6.048820591620223119e-01 5.128991242597574773e-01 0.000000000000000000e+00
5.061308155641129902e-01 3.382512221783624540e-01 0.000000000000000000e+00
7.050131431274726523e-01 8.540419891077577486e-02 4.319990046688102492e-01
3.127119619213641899e-01 5.969465718992893466e-01 1.787404768156098944e-01
8.659177557447339524e-02 8.699936095939109215e-03 6.240675546336885704e-01
3.074415159699346312e-01 3.781613652048518848e-01 1.235643385798829152e-01
9.683567895595667219e-01 3.771898456061469895e-01 1.836948493076095978e-01
5.519195870614396204e-01 3.710631585679327049e-01 2.851387097882369659e-01
4.849175980943816189e-01 5.138640273628433119e-01 0.000000000000000000e+00
5.599598343368106246e-01 4.295331440876679618e-01 0.000000000000000000e+00
6.315377978175018558e-01 4.747578696594152436e-01 2.800807990293473493e-01
7.377454110023201617e-01 4.278790923631643484e-01 4.400040349553531183e-01
6.420614138220429590e-01 1.950717667070190897e-01 3.248386866991244126e-01
9.566892665821751240e-01 6.645203672875839018e-01 0.000000000000000000e+00
7.559283355480312938e-01 4.238532883270924589e-01 0.000000000000000000e+00
7.817255246341292541e-01 5.752965595146450895e-01 0.000000000000000000e+00
6.328127839344668271e-01 8.374468360493397823e-01 0.000000000000000000e+00
4.333914086747270300e-01 2.650086239516682429e-01 5.288089016922072894e-01
3.948795704375334115e-01 -2.597470798003431725e-03 0.000000000000000000e+00
6.483678474852770934e-01 4.925634205837488011e-01 3.475420685840902024e-01
2.024338887764738359e-01 3.013179161084356128e-01 0.000000000000000000e+00
3.732712390851986584e-01 2.150787250104599924e-01 0.000000000000000000e+00
5.067027812768348793e-01 2.319995264258822854e-01 2.986855236841177152e-01
4.113490246428016528e-01 4.753650413888961257e-01 0.000000000000000000e+00
3.814108662613309164e-01 -6.799755171369725737e-02 1.382857907592464075e-01
7.365275865461564653e-01 -8.607862229420226718e-02 3.872370727770584331e-01
6.120930660328629536e-01 5.946543242791483275e-01 0.000000000000000000e+00
4.339675539077858524e-01 1.464528559283315712e-01 0.000000000000000000e+00
1.679405603276813430e-01 4.716145450435487163e-01 5.616165012044318505e-01
2.907019594326414325e-01 1.830653156788012437e-01 0.000000000000000000e+00
5.237644302068874547e-01 2.948776457733548462e-01 0.000000000000000000e+00
2.262490814945024020e-01 1.957248030630767133e-01 1.905686405104484171e-01
9.302043521880029031e-01 8.264247338609505000e-01 0.000000000000000000e+00
3.345058986282014590e-01 5.827397096611408589e-01 3.131908366243958408e-01
2.462029807541791238e-01 3.142551995606078785e-01 0.000000000000000000e+00
6.965716064477434077e-01 7.347545821335056404e-01 0.000000000000000000e+00
1.889274271068124289e-01 4.299695461519381645e-01 0.000000000000000000e+00
5.529141446012945105e-01 4.086667954026002025e-01 0.000000000000000000e+00
4.789168336627491751e-01 3.268017455428666729e-01 0.000000000000000000e+00
7.902880146259068095e-01 4.048231381927990258e-01 0.000000000000000000e+00
4.864155885181198347e-01 2.997708649721557705e-01 0.000000000000000000e+00
6.712233935281255448e-01 4.123698807505455921e-01 5.358174189080836536e-01
3.709893483594004504e-01 4.044884739483669556e-01 3.356200521953314198e-01
4.272018354851768729e-01 6.479445891500591470e-01 3.867501771550855283e-01
6.874252989279617809e-01 5.480541303406741838e-01 2.063736519871584019e-01
7.174041788888678717e-01 2.141562488290161825e-01 8.276361345234329869e-01
5.708399221125620704e-01 6.409674258722031226e-02 4.147609674636256738e-01
3.821611900775201409e-01 2.453750175455103877e-01 3.554586026204930027e-01
5.080412471185455914e-01 2.787355106217925815e-01 0.000000000000000000e+00
4.486454653971447826e-01 2.689354728500666925e-01 7.408659842853060340e-02
3.877478313254976161e-01 1.982767557183984231e-01 0.000000000000000000e+00
3.536010046660780226e-01 3.733364477846452534e-01 0.000000000000000000e+00
5.979688130872884422e-01 2.065337237349269550e-01 0.000000000000000000e+00
4.649009079344526008e-01 4.526688436912933433e-01 0.000000000000000000e+00
4.749833928217161994e-01 2.238891356379322239e-01 2.891115491202458365e-01
6.565275143445349348e-01 4.716193058850723929e-01 0.000000000000000000e+00
3.607665018254093692e-01 -2.342994725601814654e-01 0.000000000000000000e+00
6.866571290248473236e-01 -3.128227474522349283e-03 1.656777663652377885e-01
6.491002782785698644e-01 5.270603010824207457e-01 0.000000000000000000e+00
6.830232531672981722e-01 5.162993007490361830e-01 1.839989604642700005e-01
5.494988519462147281e-01 2.925412155708928541e-01 2.908716628019702988e-01
2.298112417485529413e-01 3.349682586537967577e-01 2.624705770309307962e-01
7.652235988012400236e-01 2.081096988949673321e-01 0.000000000000000000e+00
3.579543212198963431e-01 4.671418097907154010e-02 0.000000000000000000e+00
5.713390677464846856e-01 1.766314829227928485e-01 3.072600823591185026e-01
8.224711775155788551e-01 4.334656103168306185e-01 2.374585754234106449e-01
5.646138722971080215e-01 3.901353004371326261e-01 0.000000000000000000e+00
2.217016169818599725e-01 4.008732198696352000e-01 0.000000000000000000e+00
5.793346045611482698e-01 4.636716708132744280e-01 2.719585529466836960e-01
5.964281433516712694e-01 6.295884783517395888e-01 0.000000000000000000e+00
2.925237077322930812e-01 4.954060420982622226e-01 0.000000000000000000e+00
4.872736417150776989e-01 -1.627082105346240315e-01 0.000000000000000000e+00
4.979711176814746176e-01 4.114766737068755731e-01 0.000000000000000000e+00
4.696275264776398339e-01 3.430591147390755768e-01 3.446841825053865715e-01
5.614899462269623553e-01 6.846460895355309662e-01 0.000000000000000000e+00
2.556091948759990906e-01 -3.277820778302897864e-02 0.000000000000000000e+00
6.692812381038226732e-01 4.627460562776362085e-01 0.000000000000000000e+00
4.779156262889028284e-02 7.927971720144064705e-01 0.000000000000000000e+00
7.335599147456132174e-01 5.022133144417993966e-01 1.445867317450956202e-01
3.721891884341284040e-01 1.946725425513429197e-01 2.742453031441087763e-01
9.974433809717354604e-01 6.982244171765779051e-01 0.000000000000000000e+00
6.665746553359824800e-01 3.908817151512268273e-01 0.000000000000000000e+00
3.786095292935380829e-01 4.459098039698956573e-01 0.000000000000000000e+00
6.487960136331603067e-01 2.218035792876298373e-01 3.487444369361148988e-01
1.832025714513427772e-01 4.639920097238237062e-01 0.000000000000000000e+00
6.407463796824234281e-01 5.082232865893716589e-01 0.000000000000000000e+00
1.921011688102380877e-02 4.837191402182994260e-01 0.000000000000000000e+00
3.937953240837739344e-01 3.958800168733509484e-01 5.076317260771429085e-01
4.283986175344118852e-01 3.973275452134722441e-01 0.000000000000000000e+00
9.189237425597087672e-01 7.862319491190327136e-01 0.000000000000000000e+00
3.807540621977294482e-01 -1.550244444217319106e-02 0.000000000000000000e+00
6.053474725428000802e-01 4.250645017603882359e-01 1.437910085373922398e-01
6.941942957311768581e-01 4.475529666089035352e-01 4.993317102390557594e-01
4.361260438035855502e-01 5.497971987453502685e-01 2.952864996179648260e-01
5.271987569005424090e-01 9.241499502802996702e-02 0.000000000000000000e+00
5.444832715200803586e-01 3.644021279938689517e-01 0.000000000000000000e+00
8.000441778759859179e-01 5.192173199643186354e-01 0.000000000000000000e+00
4.633128457051287619e-01 4.279773449931525420e-01 3.526240721007161127e-01
4.826949571631589109e-01 -2.026391496525232760e-01 0.000000000000000000e+00
5.940048347783918326e-01 3.929861834751078309e-01 0.000000000000000000e+00
-1.821407892153859009e-02 5.110790081993734635e-01 3.594100741320325199e-01
8.643273652905053561e-01 7.724172763642711548e-01 0.000000000000000000e+00
4.545349649745970000e-01 4.156888651307784066e-01 3.607662563791982357e-01
3.878750818075171747e-01 4.293855577568456150e-01 0.000000000000000000e+00
4.915740971229368705e-01 3.496885712469948171e-01 5.389431440333011247e-01
3.648272808752454077e-01 1.576089521135572991e-01 5.987689039657687617e-01
6.816757051968855841e-01 6.198039304414213468e-01 0.000000000000000000e+00
4.800672792323228411e-01 3.793128592088064188e-01 0.000000000000000000e+00
6.787337316169064216e-01 3.224400474079343049e-01 0.000000000000000000e+00
4.679698562418177499e-01 3.933912377291961526e-01 0.000000000000000000e+00
3.909391067404708320e-01 6.702592148826378438e-01 0.000000000000000000e+00
4.720856058252713705e-01 7.504223846992914559e-01 0.000000000000000000e+00
5.553890517782574809e-01 2.026203579423424550e-01 0.000000000000000000e+00
7.413925283320415005e-01 4.981887995931630897e-01 0.000000000000000000e+00
6.045647299947043418e-01 6.856443071534267242e-01 0.000000000000000000e+00
2.976512987897417251e-01 5.922390397447062638e-01 0.000000000000000000e+00
2.772464149557909430e-01 8.198257999684099850e-02 0.000000000000000000e+00
3.774355636625772448e-01 4.701975331875263286e-01 0.000000000000000000e+00
4.700831747872100674e-01 5.511229995920042812e-01 0.000000000000000000e+00
1.397713493404583174e-01 3.565543690462241733e-01 0.000000000000000000e+00
3.580386448186124726e-01 4.180784867178126696e-01 0.000000000000000000e+00
1.546763547924503435e-01 5.957888216511176838e-01 4.704279209969592923e-01
1.218904002124630015e+00 5.407356442579209777e-01 0.000000000000000000e+00
3.659535256347028476e-01 4.968297717306146000e-01 0.000000000000000000e+00
4.772670774479942368e-01 2.557076639803430584e-01 0.000000000000000000e+00
4.753372168567594480e-01 4.600110688498360023e-01 0.000000000000000000e+00
4.009985506060440574e-01 1.556558576328370691e-01 0.000000000000000000e+00
5.321057955660390970e-01 4.225640685661696816e-01 7.345300619657669783e-01
3.301228367660418161e-01 4.116831126752474868e-01 0.000000000000000000e+00
1.654339404570315253e-02 7.325025980240402745e-01 0.000000000000000000e+00
8.660939229799510253e-01 3.003838518481385389e-01 4.866829409881680002e-01
4.834580107381368785e-01 -5.763909806098777011e-02 0.000000000000000000e+00
6.016023346738307298e-01 3.560942718672331919e-01 0.000000000000000000e+00
7.365977592324319811e-01 4.707590486455847101e-01 0.000000000000000000e+00
3.063035664291530180e-01 4.851307905500048534e-01 6.902603093270465173e-02
6.776472620666043056e-01 3.528105116636420790e-01 0.000000000000000000e+00
5.420902803219762589e-01 -7.549191957373579953e-03 0.000000000000000000e+00
3.934531841605873881e-01 4.521681528692204077e-01 0.000000000000000000e+00
4.753956452636065588e-01 -2.412834042433993353e-01 0.000000000000000000e+00
5.938734921663938460e-01 -5.772306925558501334e-02 2.284649673956304916e-01
5.519948069371436450e-01 2.928393946122924696e-01 0.000000000000000000e+00
3.821391732649681572e-01 4.920175511018238801e-01 0.000000000000000000e+00
6.125144857573477930e-01 5.264183351451398041e-01 0.000000000000000000e+00
5.669518214876635431e-01 4.946310158788951306e-01 0.000000000000000000e+00
5.282019992815614184e-01 2.285286855849136822e-01 0.000000000000000000e+00
1.692926356083288564e-01 5.567484036171815864e-01 0.000000000000000000e+00
7.623680944303347085e-01 5.584985757906830717e-01 0.000000000000000000e+00
4.552642265217459183e-01 6.501059864306162339e-01 2.142254093623594535e-01
5.065951725330009037e-01 -2.643106822083129970e-03 6.442920752228649128e-01
2.088910010941885664e-01 3.022555194017304547e-01 0.000000000000000000e+00
5.680740198264133678e-01 1.601917812408188979e-01 0.000000000000000000e+00
5.537941910456314343e-01 4.661589879937279024e-01 0.000000000000000000e+00
6.395247763046164602e-01 5.509106994727542839e-01 0.000000000000000000e+00
1.947636026255548103e-01 4.984505264977432404e-01 3.462430182057210093e-01