POSCAR from GenerativeModels
1.0
2.000000000000000000e+01 0.000000000000000000e+00 0.000000000000000000e+00
0.000000000000000000e+00 2.000000000000000000e+01 0.000000000000000000e+00
0.000000000000000000e+00 0.000000000000000000e+00 2.000000000000000000e+01
Al As At B Ba Be Br C Ca Cl Cm Co Cr Cs Cu Dy Eu F Fe Fm Fr Ga Gd Ge H Hf Hg Ho I In Ir K Kr Li Lu Md Mg Mn Mo N Na Nb Ni No O P Pd Rb Rh Ru S Sc Se Si Sn Sr Ta Tc Te Ti Tl U V W Xe Zn Zr
3 4 1 7 8 10 1 12 6 37 3 12 3 9 4 5 1 20 4 1 2 8 4 2 192 1 2 1 3 9 1 9 12 12 1 4 14 9 4 6 18 3 5 1 18 10 1 18 1 5 20 10 9 26 1 2 4 1 3 12 3 3 30 2 6 8 1
Direct
6.520123846533074641e-01 5.194257968605121567e-01 5.047036796810476789e-01
6.865045711801636141e-01 2.793394220970280006e-01 0.000000000000000000e+00
6.240069442795309618e-01 5.074628661330073953e-01 0.000000000000000000e+00
2.791939241433578633e-01 8.124220942230903075e-01 0.000000000000000000e+00
9.437407753554046819e-01 2.749368831137914970e-01 5.685181357875683794e-01
1.333031926825984925e+00 5.805540503743403802e-01 0.000000000000000000e+00
4.841341786262056690e-01 5.528541117834321339e-01 0.000000000000000000e+00
5.642071163083230978e-01 2.794874201131403169e-02 0.000000000000000000e+00
9.463758281766875280e-01 1.848517737352992629e-01 2.997348486634474618e-01
3.904108871383087376e-01 1.718292599154314093e-01 0.000000000000000000e+00
5.490442673008101293e-01 5.361275179204981756e-01 0.000000000000000000e+00
4.610339679340567098e-01 2.631220421274509391e-01 0.000000000000000000e+00
9.715574460188624029e-01 2.902394383030519887e-01 7.097269240684844771e-02
2.257302374630789643e-01 -5.119383553082168525e-02 5.516097836319741043e-01
5.554353340552345975e-01 3.259273053887847826e-01 5.259176225572685937e-01
5.029628111438850802e-01 8.684282860552692274e-01 0.000000000000000000e+00
7.016929946690572129e-01 -7.124370306563632127e-02 0.000000000000000000e+00
4.624952001839455207e-01 5.170186890899962640e-01 0.000000000000000000e+00
5.979693836823715136e-01 3.394730212835381788e-01 0.000000000000000000e+00
7.076731128593933828e-01 2.900754660794757633e-01 0.000000000000000000e+00
3.049500238940991981e-01 7.271462684985998681e-01 0.000000000000000000e+00
6.892206743316452444e-01 1.122621541104001919e-01 1.550820062547157985e-01
6.206938814689829664e-01 2.344179436557540797e-01 0.000000000000000000e+00
6.458785332549458191e-01 4.344574418598075027e-01 3.500742660443550980e-01
5.389018875510046547e-01 3.865164364373605554e-01 0.000000000000000000e+00
4.689503825427079331e-01 4.871372167958381016e-01 0.000000000000000000e+00
4.973746475131327616e-01 2.752709445005350197e-01 0.000000000000000000e+00
8.533114533393375556e-01 -1.672326888806983103e-01 6.191154279800141769e-01
3.994915362965238970e-01 3.786019501224950901e-01 0.000000000000000000e+00
5.358377664544436980e-01 1.303155589417325233e-01 1.916140265958351518e-01
7.094559894790437582e-01 4.338570365087225378e-01 0.000000000000000000e+00
5.423837717599552244e-01 3.260207847018390392e-01 0.000000000000000000e+00
7.146532629653472579e-01 2.036477829074090362e-01 0.000000000000000000e+00
7.764061162552771123e-02 2.889394177017610144e-01 4.017962141597948289e-01
5.485366416060176720e-01 1.082230932723303729e-01 0.000000000000000000e+00
5.658912999802380162e-01 2.704514373999320487e-01 0.000000000000000000e+00
5.590752966027385806e-01 6.276435258299141173e-01 1.002434300715104865e-01
5.961749105131234350e-01 2.220630184975203036e-03 0.000000000000000000e+00
2.942396319761846346e-01 1.884893816395177835e-01 3.381275735548130434e-01
4.798543034864619639e-01 4.001959331482030091e-01 0.000000000000000000e+00
6.334057811294547813e-01 7.021851566755851204e-01 0.000000000000000000e+00
6.564565085912928977e-01 2.925607325985998264e-01 0.000000000000000000e+00
6.984941291945923059e-01 -2.896138063206876723e-02 0.000000000000000000e+00
1.063332812560638718e+00 5.276578560874498613e-01 0.000000000000000000e+00
4.983060272953769854e-01 2.070897299632947774e-01 0.000000000000000000e+00
5.722812185522739847e-01 2.717577419685820450e-01 3.050326890465733243e-01
7.709746109230630751e-01 2.112797973081201874e-01 2.631946987041249297e-01
3.200795626428556417e-01 3.352324925865590721e-01 0.000000000000000000e+00
3.415365471018085852e-01 2.496391533583679490e-01 0.000000000000000000e+00
6.714338445526421006e-01 6.657543674661611233e-01 0.000000000000000000e+00
5.695661552852675502e-01 -2.836448050921149822e-01 0.000000000000000000e+00
8.260148757913642337e-01 2.906499979281591539e-01 4.036679576413285675e-01
7.183941559057575033e-01 2.666849721939059670e-01 0.000000000000000000e+00
9.103556021946563881e-01 2.677493354048564589e-01 5.190952701950838355e-01
9.704592499497786129e-01 2.166757072198000067e-01 0.000000000000000000e+00
3.463133184937785547e-01 2.351046257661651984e-01 0.000000000000000000e+00
7.619794299750641819e-01 4.386919529997639344e-01 0.000000000000000000e+00
9.037800680404827203e-01 2.601794957460958901e-01 2.775463690624533353e-01
6.702187708421760703e-01 5.144259134218801544e-01 3.039738750102363163e-01
8.446479953541047303e-01 3.897595503166046971e-01 4.354749930783433642e-01
5.671691176686129987e-01 4.819800606396578146e-01 0.000000000000000000e+00
7.606408581068444530e-01 -3.967678137720507259e-01 0.000000000000000000e+00
6.403369270316006112e-01 -2.313603430853805598e-02 0.000000000000000000e+00
5.897067918186310598e-01 -3.408095684570691120e-01 4.476839025964278740e-01
3.889924325704634533e-01 8.514999196140481397e-01 0.000000000000000000e+00
2.731111401243353498e-01 4.676231027283790365e-01 0.000000000000000000e+00
9.094036871212293205e-01 8.585512092325396916e-01 0.000000000000000000e+00
4.528675264747167306e-01 3.771304164016417992e-01 1.301618284894860977e-01
7.770741573117181389e-01 5.995954220552829339e-01 3.997515058164098356e-01
4.527655998687880601e-01 6.072979977407522156e-01 3.546569560190657722e-01
6.138804580569733327e-01 2.977828917434577338e-02 0.000000000000000000e+00
3.555920283611403443e-01 5.454862141120070396e-01 0.000000000000000000e+00
7.783951469956722491e-01 -1.132380291017858198e-01 3.808513509841202627e-01
7.473999494865036786e-01 -2.782775665317733793e-01 0.000000000000000000e+00
6.222367782632878264e-01 3.694094710145108262e-01 4.614214564936238716e-01
5.860268398320342964e-01 3.690853513029235256e-01 0.000000000000000000e+00
6.471335864245195690e-01 2.519987214578922607e-01 0.000000000000000000e+00
7.243422574587451424e-01 1.176902951621949800e-01 5.899574929734444639e-01
6.871397842111884868e-01 2.283100868752652168e-01 5.821134989815621719e-01
5.268745558749864388e-01 4.791599304767724110e-01 0.000000000000000000e+00
5.529412891989797796e-01 3.225842336746154171e-01 0.000000000000000000e+00
6.519805382613381717e-01 3.276818134840624452e-01 0.000000000000000000e+00
5.617426790899698874e-01 6.537759057613219404e-01 0.000000000000000000e+00
6.405067472588812372e-01 -5.125594800102595272e-02 7.913125303472537952e-01
8.042492874541631309e-01 4.456150989222209535e-01 0.000000000000000000e+00
5.698726531568886200e-01 4.513343384082009191e-01 0.000000000000000000e+00
5.008959362409924898e-01 1.207593235541429832e-01 3.893183924528836881e-01
5.014876745658233270e-01 5.381041929079645181e-01 4.357848221832774094e-01
9.611986696633776361e-01 -2.795056611514414868e-01 0.000000000000000000e+00
7.847054106201118984e-01 2.958928753935193834e-01 1.761254450080618206e-01
3.692933010753892686e-01 3.205636168702015176e-01 0.000000000000000000e+00
7.904365692187204084e-01 2.537450993477465833e-01 0.000000000000000000e+00
6.857416530617208572e-01 9.389193852349042579e-03 1.925507111274750160e-01
3.739994367029806366e-01 4.640753415134548643e-01 0.000000000000000000e+00
5.463664673277659478e-01 4.275962662140779802e-01 0.000000000000000000e+00
4.196692745424807081e-01 6.289212553298705322e-01 0.000000000000000000e+00
5.363421431881815193e-01 4.098873195074170805e-01 0.000000000000000000e+00
4.605985701002910382e-01 4.701330919812816145e-01 0.000000000000000000e+00
8.163473194013726175e-01 5.539869278720014334e-01 6.199111081354047315e-01
9.533021110872028636e-01 -8.717086054399558748e-02 0.000000000000000000e+00
5.867285545046421191e-01 1.417926752086693387e-01 0.000000000000000000e+00
6.738018861531531734e-01 -6.242620510593921423e-02 6.490722366219300321e-01
7.818724671225605327e-01 4.035089866024885730e-01 4.727790642297964308e-01
5.824689206204131109e-01 5.355161432401394084e-01 0.000000000000000000e+00
9.898089035194166385e-01 1.258754922481565286e-01 4.697058591224221313e-01
5.049008956360443445e-01 2.574776557548921208e-01 0.000000000000000000e+00
7.271063405134632340e-01 4.257995380418173603e-01 0.000000000000000000e+00
4.620716153250651326e-01 2.311984428064344232e-01 0.000000000000000000e+00
9.973363575726574837e-01 9.469239408091556509e-02 0.000000000000000000e+00
6.050975824754638577e-01 2.752554121146610910e-02 3.013248322979033000e-01
1.385523954377554379e-01 3.518270832519603264e-01 5.503219336360515301e-01
1.349674962484626040e-01 5.196892561165411539e-01 0.000000000000000000e+00
5.223878760175052482e-01 -2.128459294537954349e-02 0.000000000000000000e+00
8.695063101653540683e-01 -1.787210506314527159e-01 0.000000000000000000e+00
3.824745359542320866e-01 6.306948338683028288e-01 0.000000000000000000e+00
5.028157626122531365e-01 2.804633947692836138e-01 0.000000000000000000e+00
5.220731920378592905e-01 2.810331616040898650e-01 4.034263396670005886e-01
4.697503169135341938e-01 4.294825036111391547e-01 0.000000000000000000e+00
5.803233663553339916e-01 3.814207077529445655e-01 0.000000000000000000e+00
8.297775167208336633e-01 4.297427173517643917e-01 0.000000000000000000e+00
4.997412728683663374e-01 4.385547062680319463e-01 0.000000000000000000e+00
8.756688625327995190e-01 9.089744998768978235e-02 2.322081053214783974e-01
7.382616829875732201e-01 4.515571366762805017e-02 0.000000000000000000e+00
4.611004785504773107e-01 5.361199975280778185e-01 0.000000000000000000e+00
4.733992081246503059e-01 2.437661447960731698e-01 0.000000000000000000e+00
5.356519721693280278e-01 -4.644448181827165456e-02 0.000000000000000000e+00
3.922178251594807818e-01 2.993245019665542461e-01 1.492258634536084427e-01
6.246004294345319785e-01 3.848334122372952804e-01 0.000000000000000000e+00
4.594049106290192253e-01 -2.537179297502234476e-02 0.000000000000000000e+00
5.954253614008389039e-01 1.779015263868143348e-01 3.067409482036502766e-01
5.781551916585007111e-01 2.401945677558499082e-01 1.563136272494090040e-01
6.554484724015704478e-01 1.442123778267706546e-01 0.000000000000000000e+00
5.351073711608872463e-01 5.906913202840771149e-01 0.000000000000000000e+00
5.646869287663868198e-01 4.856636071907489693e-01 0.000000000000000000e+00
6.905474555557116201e-01 1.577991943541712239e-01 2.978560771693263831e-01
3.952798819030194366e-01 2.324673237630179301e-01 4.185057967283133395e-01
7.456069029127719849e-01 1.849045924332903823e-01 0.000000000000000000e+00
5.614978054897543647e-01 6.059774889640556772e-02 2.044560757764597447e-01
3.399796992467456480e-01 7.335198296449537692e-01 0.000000000000000000e+00
2.177594088470446998e-01 6.078754793062038919e-01 0.000000000000000000e+00
6.134062516983467273e-01 4.291517253774836949e-01 7.139504428474527931e-01
5.241375264940502099e-01 3.525396751492805292e-01 0.000000000000000000e+00
7.653721636580941290e-01 5.055740304572297061e-01 0.000000000000000000e+00
7.317204711282254692e-01 4.059433203155271563e-01 0.000000000000000000e+00
6.302303131304225481e-01 2.388448551103019568e-01 0.000000000000000000e+00
8.185620929211849806e-01 6.164442345450288352e-01 2.743232587261679178e-01
7.186745246969178380e-01 2.556462628045266250e-01 0.000000000000000000e+00
6.880453079048216569e-01 -1.637806060134776587e-01 0.000000000000000000e+00
6.575943801929382548e-01 3.528000828688117041e-01 3.874674814895873176e-01
5.569307220615588028e-01 2.050958198094838814e-01 0.000000000000000000e+00
6.928972668794866063e-01 4.531809100117527578e-01 0.000000000000000000e+00
7.898333983803537128e-01 -4.216670236819597406e-01 0.000000000000000000e+00
9.432249116748114837e-01 3.816925354139486526e-01 0.000000000000000000e+00
6.852186918892213541e-01 4.723628035225293509e-01 1.385943522448946919e-01
5.198704136584031410e-01 4.245472912601526705e-01 0.000000000000000000e+00
5.383177948396304924e-01 2.474491148386849249e-01 0.000000000000000000e+00
7.623194166753427536e-01 2.944255918995702936e-01 2.639694563527583693e-01
5.510216598650684583e-01 4.125073572964363944e-01 0.000000000000000000e+00
9.237125182337170282e-01 5.548353179294257531e-01 0.000000000000000000e+00
8.535592315645423866e-01 9.268876555016158925e-02 2.519138345852776073e-01
3.989744116115740979e-01 2.862415085324609976e-01 0.000000000000000000e+00
7.278172905740509790e-01 2.592864540941508533e-01 0.000000000000000000e+00
5.336212045049552044e-01 -2.233140768056183223e-01 5.512607397503221929e-01
9.705170278471412226e-01 -1.567261342976249416e-01 6.863671042266233924e-01
5.224297283598016151e-01 -1.248184107030447798e-02 0.000000000000000000e+00
4.342743722576027920e-01 1.142260520996161377e+00 0.000000000000000000e+00
4.268538448086498516e-01 3.863064463069436627e-01 0.000000000000000000e+00
2.186162610760958858e-01 4.252757430184410659e-01 1.456194154314571776e-01
5.109275822874511652e-01 3.902478147102210748e-01 0.000000000000000000e+00
4.838468723526865300e-01 2.729226079321001031e-02 0.000000000000000000e+00
1.138771448313447898e+00 3.999543123520163945e-01 2.129792082076916726e-01
3.896578031469351000e-01 4.650050332692756694e-01 0.000000000000000000e+00
8.348429405860902097e-01 2.478070839503291323e-01 3.999602534678681209e-01
6.145789617142874972e-01 6.527366760754050867e-01 5.166654181771959120e-01
6.676044437178778601e-01 3.366310265700636073e-01 5.195369638632779674e-01
7.533506004145842372e-01 3.492051738789672122e-01 1.594131827554214897e-01
7.790046712671789830e-01 3.877035762492467841e-01 0.000000000000000000e+00
4.529931860871663218e-01 1.564687537768921777e-01 0.000000000000000000e+00
7.592229138258682619e-01 -1.561758032586380018e-02 0.000000000000000000e+00
2.553817707187562291e-01 3.300638205912900247e-01 3.575550252505279580e-01
4.437543508784054236e-01 5.054195449695483289e-01 0.000000000000000000e+00
6.016914800387338502e-01 3.260247454794167332e-01 0.000000000000000000e+00
2.194698524105797022e-01 6.639516318847361598e-01 0.000000000000000000e+00
9.276633518750664331e-01 6.648369272021947829e-03 3.997737990317793422e-01
8.958159625638217882e-02 6.342340930559799972e-01 0.000000000000000000e+00
5.260766410905989288e-01 2.099634693830504384e-01 6.751731427672598151e-01
8.916259670597453946e-01 4.207118273946504061e-01 6.760930371334477051e-01
4.746236985073508663e-01 4.949622297050325637e-01 0.000000000000000000e+00
4.711266936044644638e-01 3.357992074692786044e-01 1.685516573856525868e-01
4.766709413247707250e-01 4.148159726470470599e-01 0.000000000000000000e+00
5.272471031066899849e-01 7.305221211341509369e-01 4.404388057115818933e-01
4.186631011718549011e-01 3.373328100369472615e-01 0.000000000000000000e+00
3.596430525823997026e-01 3.906986580219572458e-01 0.000000000000000000e+00
8.027062674114436858e-01 5.498870145442177337e-01 3.939052674901769580e-01
8.890454459146340804e-01 2.615712125222056095e-01 3.084469299926686503e-01
4.812396552390186821e-01 -1.220665258069202341e-01 0.000000000000000000e+00
5.918511637309271656e-01 1.261261254436165657e-01 4.496903190322465438e-01
6.729226007057208525e-01 2.660883748628168899e-01 0.000000000000000000e+00
8.107133334387919277e-01 4.451521622237166742e-01 0.000000000000000000e+00
8.590117999546880156e-01 2.385267000885726851e-02 7.620977043966981057e-01
6.827464955653125278e-01 3.119691953002368123e-01 8.085275677678060990e-02
3.715954988317924368e-01 5.814779755406326300e-01 0.000000000000000000e+00
5.198498980231031075e-01 3.300530094038591766e-01 0.000000000000000000e+00
3.053025807663602986e-01 6.059538185991986126e-01 0.000000000000000000e+00
7.710773220271588402e-01 -1.299281641073000149e-01 6.817141329956120099e-01
6.079993425787196815e-01 5.316906571435269235e-01 0.000000000000000000e+00
4.842505571756063887e-01 2.594178874947149493e-01 0.000000000000000000e+00
7.716339676174360784e-01 6.264578431834397776e-01 4.453891806127543429e-01
5.210710005955319080e-01 4.596408427236253758e-02 3.049706647772074675e-01
3.946117517339127190e-01 2.554573751704691809e-01 0.000000000000000000e+00
2.624267002047968589e-01 7.299249002994070423e-01 0.000000000000000000e+00
4.136803180650474587e-01 3.695809584369713630e-01 0.000000000000000000e+00
6.387335400612722536e-01 3.506561119136545335e-01 0.000000000000000000e+00
3.344171167995537708e-01 4.492294411404614829e-01 0.000000000000000000e+00
7.076930546960948920e-01 -1.494266664814096757e-01 0.000000000000000000e+00
7.322872044548883741e-01 -1.703401586157358150e-01 2.011584935465837720e-01
7.383324668392459156e-01 5.776142306859188835e-02 0.000000000000000000e+00
6.018082302546499118e-01 2.287819114759789274e-01 1.749532113277646461e-01
9.386897421976105882e-01 4.871567859294760883e-01 0.000000000000000000e+00
4.253339946806806715e-01 1.234405099585758059e-01 0.000000000000000000e+00
8.423997954014841305e-01 2.717761006474725960e-01 1.758514162463205022e-01
7.722597866226830199e-01 -2.574919433189004625e-01 6.416333531519491373e-01
6.928176192259212218e-01 1.366664554785546049e-02 2.749824766287350952e-01
5.134189617057606236e-01 -2.471562980083594763e-01 0.000000000000000000e+00
6.740205800965419769e-01 1.520299177371415844e-01 2.059804578651875939e-01
6.585850091006213436e-01 2.752563397124674349e-01 2.848317626075720366e-01
8.804409251689566673e-01 6.294032042991863918e-01 1.825774747723631908e-01
9.181867825305080055e-01 5.088331513805266493e-01 2.580043532330953404e-01
3.702064117923029585e-01 3.336404655814071418e-01 0.000000000000000000e+00
5.099047414435313730e-01 4.859918300213543763e-01 2.978661343188053756e-01
4.679328905485666823e-01 -1.665803590068974938e-01 0.000000000000000000e+00
6.190072909838020276e-01 -3.602253093059242239e-01 0.000000000000000000e+00
7.083583366125479897e-01 4.392401938039737219e-01 0.000000000000000000e+00
5.050860287315271924e-01 1.740298834837700204e-01 4.618856636481467604e-01
4.383563886311248048e-02 4.404298173524525684e-01 0.000000000000000000e+00
6.349203634392880380e-01 2.288146819632286277e-01 0.000000000000000000e+00
6.170786769273629568e-01 2.862692340039640904e-02 0.000000000000000000e+00
3.687101799396732549e-01 3.437203381976895455e-01 0.000000000000000000e+00
4.780984089615900601e-01 2.426711873111740969e-01 0.000000000000000000e+00
3.620321513162398919e-01 3.364465788359861653e-01 0.000000000000000000e+00
3.169617609426722549e-01 5.425111081067107710e-01 0.000000000000000000e+00
6.171788276740212131e-01 2.385005777997829535e-01 0.000000000000000000e+00
4.177158869331402125e-01 4.850450436396214204e-01 0.000000000000000000e+00
1.914229097698867399e-01 5.626122921460295911e-01 2.358236128712037916e-01
6.102428054715631767e-01 3.955098182617404756e-01 3.913551985031322733e-01
5.973330128935896433e-01 -1.564685619566634767e-01 0.000000000000000000e+00
8.361809874557186717e-01 3.353862619716524440e-01 0.000000000000000000e+00
8.221554423691463942e-01 1.166634022873325183e-02 0.000000000000000000e+00
2.953237657585781051e-01 6.968366198083155716e-01 0.000000000000000000e+00
2.911024786667608666e-01 4.504686107510755821e-01 0.000000000000000000e+00
2.995392647653783991e-01 3.506340057350393336e-01 0.000000000000000000e+00
5.897118708222690575e-01 6.868058866138886387e-01 0.000000000000000000e+00
5.019286512140216372e-01 -1.872726260918204932e-01 0.000000000000000000e+00
6.905192643183719614e-01 3.238946170219598741e-01 0.000000000000000000e+00
6.876344776109450940e-01 4.300230657871262352e-02 0.000000000000000000e+00
5.485942527523066659e-01 -1.719224200312692297e-01 0.000000000000000000e+00
6.707373495610809977e-01 1.794955445377568459e-01 0.000000000000000000e+00
4.254251464239917624e-01 4.235043084043814687e-01 0.000000000000000000e+00
5.918379574426607670e-01 2.659394340952536684e-01 4.194762439487389472e-01
1.747748825357486879e-02 5.674509942718473088e-01 0.000000000000000000e+00
6.173629266474732757e-01 -1.071620718929224836e-01 0.000000000000000000e+00
4.397995601444946168e-01 3.040604892668236081e-01 0.000000000000000000e+00
8.617688171749100512e-01 3.254611453175428881e-01 2.401663778038877206e-01
4.390053950954053708e-01 4.385101506957435058e-01 0.000000000000000000e+00
5.633888842647026829e-01 -6.610920273032117045e-02 6.214438610672061714e-01
7.012212560828059438e-01 1.262991391393979423e-01 4.468729239565332190e-01
5.499241235248664150e-01 3.688555408929035107e-01 2.118850947419952391e-01
6.387333084717562448e-01 4.401683549530857054e-01 0.000000000000000000e+00
9.581318235445884790e-01 1.769021131481550713e-01 3.239768505986828639e-01
4.397598062080452230e-01 3.004616969365609958e-01 0.000000000000000000e+00
4.060007052025029761e-01 3.794066321084397231e-01 0.000000000000000000e+00
9.629799418383147014e-01 5.114710048806861975e-01 4.222440289094593346e-01
4.497220615668467980e-01 4.894857104104193279e-01 0.000000000000000000e+00
3.993904454876353594e-01 4.818453801409325887e-01 0.000000000000000000e+00
6.618829657282542245e-01 3.771235025820580677e-01 0.000000000000000000e+00
5.723157767018520747e-01 -7.204417841054255867e-02 0.000000000000000000e+00
5.855183249115210042e-01 4.629945756461651962e-01 3.544867818620531796e-01
4.127243750211003759e-01 6.939127106569751291e-01 1.162954525519268589e-01
4.668199303147564372e-01 3.168545386048058354e-01 2.987693632725585413e-01
3.999265609427811174e-01 4.759356810047488118e-01 0.000000000000000000e+00
2.947697498615089451e-01 6.787633295816757339e-01 0.000000000000000000e+00
2.655975983598801715e-01 8.067936547817498028e-01 0.000000000000000000e+00
3.382963091040356307e-01 3.779918568120247402e-01 0.000000000000000000e+00
9.041146785391280805e-01 2.932088879039330687e-01 0.000000000000000000e+00
7.814925202464289011e-01 1.602025802921177577e-01 0.000000000000000000e+00
7.085273310764991228e-01 4.105426051496552375e-01 0.000000000000000000e+00
8.732901075215189213e-01 1.232197664544876226e-01 0.000000000000000000e+00
6.188132276982825086e-01 2.087903439722383903e-01 0.000000000000000000e+00
5.420250323596949027e-01 3.110705272078164718e-01 0.000000000000000000e+00
6.558774937148637019e-01 6.114342779459325250e-01 3.365696894110294934e-01
4.528650277940537983e-01 3.567053011545324726e-01 0.000000000000000000e+00
5.350736469702906950e-01 1.778831402456114708e-01 0.000000000000000000e+00
4.426310440976870542e-01 6.085854353367514680e-01 4.984072738552838278e-01
3.573083233212814847e-01 6.735058660798262098e-01 8.299103955691148338e-01
3.192889211002005734e-01 4.965575094559040448e-01 0.000000000000000000e+00
6.864230946979243964e-01 2.002831159716172982e-01 4.780051043757751472e-01
4.421873527457320652e-01 -3.899130115253823803e-02 0.000000000000000000e+00
5.948250755587148886e-01 2.615229187057435123e-01 0.000000000000000000e+00
5.161198185093288648e-01 3.443171985274973146e-01 0.000000000000000000e+00
1.069134406478828625e+00 2.965778187100653884e-01 4.323445037997646345e-01
7.907473144854761937e-01 2.301173360624523268e-01 0.000000000000000000e+00
8.354667870123331230e-01 1.870903456408956611e-01 0.000000000000000000e+00
4.765105557733013697e-01 3.848561491708755167e-01 0.000000000000000000e+00
6.055691186589887698e-01 6.653487104823530007e-01 5.469582003063000464e-01
9.382468238344414679e-01 2.115751363421480846e-01 2.468791621485806331e-01
3.667112154648504152e-01 5.281810748240411968e-01 0.000000000000000000e+00
6.788969825386832468e-01 -7.310901797721847117e-02 0.000000000000000000e+00
8.433839971439116567e-01 1.744669661946398609e-01 2.299351074803370754e-01
6.693944969975036408e-01 4.692856881562091909e-01 9.343235696005569579e-02
1.156119207264193038e+00 3.212270976004416578e-01 0.000000000000000000e+00
4.052710207639613760e-01 5.229488833622187860e-01 0.000000000000000000e+00
7.207225522683176067e-01 1.580461536289711200e-01 0.000000000000000000e+00
4.383238092794470298e-01 2.170500443000067392e-01 0.000000000000000000e+00
7.939858260226080322e-01 4.164461848434337643e-01 1.309599900678334317e-01
6.114943476555332325e-01 3.061667199343875989e-02 0.000000000000000000e+00
3.031283501063567476e-01 7.958591742762540777e-01 0.000000000000000000e+00
5.947951706521279469e-01 4.447587903509337970e-01 4.532177881612875492e-01
7.045764521484967347e-01 3.389401855804926589e-01 0.000000000000000000e+00
6.806309019348675271e-01 1.852275011117116010e-01 2.954793194203573226e-01
6.701259784940111208e-01 2.514609264560703217e-01 0.000000000000000000e+00
5.196455691454998638e-01 2.825732417167317045e-01 4.161094421469870852e-01
1.160563865243116721e+00 6.206557931051236432e-01 0.000000000000000000e+00
5.940619401057170013e-01 1.064268318217038711e-01 0.000000000000000000e+00
5.054553662357587074e-01 3.294469248143137019e-01 1.056778066581051112e-01
7.900346002891397434e-01 2.884461855861838453e-01 1.346934402775620265e-01
5.417247347124897194e-01 3.901824967748490636e-01 0.000000000000000000e+00
2.099688198831153318e-01 6.975862001891387498e-01 0.000000000000000000e+00
8.924428687744079269e-01 3.978197064446553632e-01 0.000000000000000000e+00
3.997366465427174553e-01 3.155542978026752987e-01 0.000000000000000000e+00
5.362008945309629793e-01 4.271414719945885174e-01 0.000000000000000000e+00
2.361728947768247933e-01 7.033625411697690399e-01 0.000000000000000000e+00
8.327024925136279343e-01 4.047923149574981228e-01 2.393480059623758205e-01
7.564467619988494151e-01 3.823910750278477488e-01 0.000000000000000000e+00
6.356771770780134112e-01 2.302270047555077248e-01 0.000000000000000000e+00
8.279705490912601107e-01 5.364464095473179261e-01 6.964043929603915828e-01
4.836275453774849797e-01 2.721522160359051146e-01 0.000000000000000000e+00
5.960673278598641600e-01 3.297071778877163073e-01 5.841224783899087170e-01
5.179428214947693343e-01 1.207372165310025558e-01 0.000000000000000000e+00
7.735846821035221588e-01 3.250430497622559534e-01 1.613126166732077316e-01
4.592718753276672228e-01 3.462901320355670221e-01 6.950710412898821744e-01
5.546455423128694440e-01 -1.347579128700913120e-01 0.000000000000000000e+00
3.444805226994409608e-01 7.650375136386475816e-01 0.000000000000000000e+00
7.017074026057981140e-01 2.279088342999413541e-02 0.000000000000000000e+00
7.322409612016803626e-01 2.690950311335114087e-01 4.154594875304091772e-01
4.382194185249670415e-01 3.815641422648128334e-01 0.000000000000000000e+00
8.194086093080431565e-01 2.981859588615953793e-01 1.358658701713689743e-01
2.048953535023334549e-02 2.731615358296974883e-01 1.669647951248910411e-01
5.457774466143201497e-01 3.120600968153082189e-01 0.000000000000000000e+00
8.296568135364531527e-01 1.634924420597012595e-01 0.000000000000000000e+00
6.481635081159800027e-01 9.513357252734955249e-02 2.403607843453310355e-01
2.094755836370698621e-01 5.500546905894077021e-01 0.000000000000000000e+00
8.709340483125315169e-01 2.135122611829037842e-01 0.000000000000000000e+00
4.998240826765718570e-01 4.621825702977024886e-01 0.000000000000000000e+00
4.997368595170664785e-01 3.871906465994446878e-01 3.529112232252999970e-01
4.207776413575805563e-01 4.738667432690319981e-01 0.000000000000000000e+00
9.176840085131856561e-01 4.357646778988355507e-01 0.000000000000000000e+00
6.742903439407084143e-01 4.743053666278106428e-01 0.000000000000000000e+00
7.133349417506381629e-01 1.427817770309864898e-01 0.000000000000000000e+00
9.832040089393370152e-01 3.813938043682871815e-01 4.890240013230013894e-01
7.628701089531668700e-01 1.827951099645420685e-01 0.000000000000000000e+00
4.476539801485972525e-01 4.905416034308507367e-01 3.474239839365174110e-01
4.306531551681520575e-01 -4.000014942764029691e-02 6.380991247126730492e-01
7.518470839028374986e-01 4.247751176729213096e-01 0.000000000000000000e+00
1.344545281788909197e-01 6.930299546447906689e-01 0.000000000000000000e+00
1.114909102480538428e+00 3.879591604517880210e-01 3.846076892176453210e-01
6.263741967451327275e-01 3.837136407490355783e-01 3.373174792799543686e-01
8.015535222149779981e-01 4.167351010526134658e-01 0.000000000000000000e+00
8.233995921256632711e-01 1.916220796416543415e-01 0.000000000000000000e+00
7.187525533063054972e-01 5.564758391544196714e-01 2.387103297243429179e-01
8.576114829419811958e-02 8.012584872574834982e-01 0.000000000000000000e+00
6.145954193243965413e-01 1.741959800766812450e-02 1.843827682872692941e-01
6.026932769131181367e-01 5.312161971291696760e-01 4.496543952423197599e-01
3.153899278562630748e-01 4.988930835598432978e-01 0.000000000000000000e+00
8.447400957427948498e-01 1.211507371348564677e-01 0.000000000000000000e+00
5.439195698666571266e-01 -1.911640514606367525e-01 0.000000000000000000e+00
5.557341140366344190e-01 5.426609035201757081e-02 4.184543542853969011e-01
9.520995494229922418e-01 7.899047513740531379e-02 3.811948169873069503e-01
2.489868631768463736e-01 4.946161806108622105e-01 0.000000000000000000e+00
6.540033971057961359e-01 -1.366035479916400952e-01 1.489398390865899202e-01
5.663587044486739774e-01 1.523963671522349239e-01 0.000000000000000000e+00
5.992905390660364651e-01 4.892583277899040795e-01 0.000000000000000000e+00
6.720377914072739323e-01 3.685684615024835686e-01 8.095107471100322361e-01
7.800196402334236279e-01 3.769466524193476609e-02 1.086291891376923724e-01
5.375632854444374331e-01 3.487641222420161391e-01 0.000000000000000000e+00
8.100326930104971845e-01 -1.183850840995535059e-01 0.000000000000000000e+00
7.525253039325792148e-01 1.536754418707314551e-01 9.193431100698290503e-02
6.871722779813169701e-01 3.626987228104319172e-01 5.142710068946564350e-01
5.611861158983340037e-01 -1.161565574269303180e-01 2.580184981997485361e-01
7.987514736610556998e-01 2.993147842306748130e-01 0.000000000000000000e+00
6.837771748166794339e-01 2.964599344944763848e-01 2.972896284345585283e-01
0.000000000000000000e+00 0.000000000000000000e+00 0.000000000000000000e+00