POSCAR from GenerativeModels
1.0
2.000000000000000000e+01 0.000000000000000000e+00 0.000000000000000000e+00
0.000000000000000000e+00 2.000000000000000000e+01 0.000000000000000000e+00
0.000000000000000000e+00 0.000000000000000000e+00 2.000000000000000000e+01
Ag Al As Au B Be Br C Ca Cd Cl Cm Co Cr Cu Eu F Fe Fm Fr Ga Gd Ge H Ho In K Kr La Li Lu Mg Mn Mo N Na Nb Ni O P Pd Pm Pr Rb Re Rh Ru S Sb Sc Se Si Sm Sn Sr Ta Tc Te Ti Tm V W Xe Y Zn Zr
2 3 8 1 6 13 7 11 16 7 23 1 13 4 7 4 13 7 1 1 5 2 7 143 1 3 6 13 1 26 2 11 5 1 8 17 2 11 15 7 4 1 1 6 1 2 4 18 1 7 6 18 2 1 2 1 2 4 10 2 13 1 3 4 15 2
Direct
8.146321559903925147e-01 -9.601450151550872114e-02 3.232900960648548150e-01
8.056439246754485417e-01 3.880433620829057961e-01 0.000000000000000000e+00
9.116749852028855905e-01 2.982393061463650685e-01 0.000000000000000000e+00
7.044204823220159284e-01 1.738912409471597975e-01 4.819123678243630859e-02
8.386545598593690976e-01 8.424093228739226724e-02 0.000000000000000000e+00
7.822215572061388400e-01 2.002902276088358580e-01 2.435782997794531113e-01
4.804187403527730993e-01 2.508384341524434458e-01 0.000000000000000000e+00
1.366083049774170055e+00 0.000000000000000000e+00 0.000000000000000000e+00
1.081982299935839498e+00 3.129876577498305057e-01 4.580069230673053937e-01
7.419855028937365482e-01 4.985915084638730121e-01 0.000000000000000000e+00
9.877827259622178335e-01 -3.770455897702063019e-02 0.000000000000000000e+00
6.056315211220790751e-01 -5.142277288528718238e-01 0.000000000000000000e+00
7.672420411481676306e-01 4.941131206206084148e-01 2.807250771140590295e-01
1.068817286985743964e+00 3.042372387937988254e-01 5.997904885558854593e-01
6.488229712192068455e-01 1.280056281961368114e-01 0.000000000000000000e+00
7.469670159481408556e-01 1.554017282081453510e-01 6.435365553563332508e-01
6.075521489569810640e-01 4.743983116948617962e-01 1.413073158388291617e-01
6.885901018376733296e-01 1.647578438423293878e-01 0.000000000000000000e+00
5.002656580897552052e-01 3.148760134791077636e-01 0.000000000000000000e+00
5.746657036777279570e-01 4.426448229285728786e-02 0.000000000000000000e+00
5.813056888440687464e-01 4.461261306546544514e-01 0.000000000000000000e+00
4.280571831777827407e-01 3.235818450477225827e-01 0.000000000000000000e+00
5.260890198750582947e-01 2.219148484328670179e-01 0.000000000000000000e+00
8.342441453175569732e-01 3.086370612371742705e-01 0.000000000000000000e+00
5.129345797256092965e-01 2.503049279085034495e-01 0.000000000000000000e+00
7.430216920813492720e-01 7.739023633647978961e-03 3.757804441046175281e-01
9.265116715825283400e-01 8.535224038883498787e-01 0.000000000000000000e+00
7.768059623283410930e-01 -1.376042223515416829e-02 0.000000000000000000e+00
8.187365183261525736e-01 1.972893669853376108e-01 0.000000000000000000e+00
3.194383582095596807e-01 6.032818574167276848e-01 0.000000000000000000e+00
8.855879902580477969e-01 9.225765349786396730e-02 3.943034901287768568e-01
5.638211373269673699e-01 2.709300089104555997e-01 0.000000000000000000e+00
6.365738909961017322e-01 6.073764764311283537e-01 2.146485258982817612e-01
3.256055662176794430e-01 5.699750645683422379e-01 0.000000000000000000e+00
5.663731240075892126e-01 2.656095103976486849e-01 0.000000000000000000e+00
6.354950960727773213e-01 -3.930921443775470259e-02 0.000000000000000000e+00
8.553923534095461134e-01 -2.216541127991356053e-01 0.000000000000000000e+00
5.996449073614887881e-01 2.185821370078022685e-02 1.999622115120598398e-01
2.734468271949396234e-01 8.188677356470948077e-01 0.000000000000000000e+00
6.469339789436007182e-01 4.024496614000205863e-01 0.000000000000000000e+00
9.715659816257320447e-01 4.939049304958127440e-01 3.480540560527419780e-01
7.772263709277922317e-01 2.087446764697151735e-01 0.000000000000000000e+00
7.398126807764513480e-01 2.512439746066599255e-01 1.835515937982745704e-01
3.695207238985338538e-01 5.809094845605127233e-01 0.000000000000000000e+00
7.744742019827235424e-01 2.070048044799221998e-01 0.000000000000000000e+00
5.454796421662690964e-01 1.241295953897710858e-01 0.000000000000000000e+00
6.908164355392543143e-01 2.419023785941015747e-01 0.000000000000000000e+00
8.904126680855901643e-01 -3.901628741336944373e-01 0.000000000000000000e+00
9.046029070246860426e-01 -4.524247814013504509e-03 6.129274790837391240e-02
3.384887544378621937e-01 3.680871610301779118e-01 0.000000000000000000e+00
7.855177659766394704e-01 -2.327436831191838085e-01 0.000000000000000000e+00
8.275505080673657421e-01 -6.388154363830742533e-01 0.000000000000000000e+00
7.377308188473522543e-01 2.529861450365933351e-01 0.000000000000000000e+00
3.158529438877999418e-01 5.354472671158012620e-01 0.000000000000000000e+00
7.842898955452830556e-01 2.458846178371209001e-01 0.000000000000000000e+00
6.712766592123644571e-01 1.470125619233992875e-01 3.063635724655637826e-01
8.794513395991322424e-01 1.404245823162733053e-01 0.000000000000000000e+00
7.253358425790517039e-01 -3.883456445225985654e-02 0.000000000000000000e+00
6.680023320824731714e-01 3.919458502462810356e-01 0.000000000000000000e+00
7.824530761835775117e-01 -1.617965819935391902e-01 0.000000000000000000e+00
4.082548938927796911e-01 3.454968200879882101e-01 1.951430768755874068e-01
4.932141529111921940e-01 6.587186757204062104e-01 0.000000000000000000e+00
5.982414941793098295e-01 3.291268919992991204e-01 0.000000000000000000e+00
7.941830935696475580e-01 4.181978933922781971e-01 3.164620811019045465e-01
7.592915713572723213e-01 3.862596728135345714e-01 0.000000000000000000e+00
8.594919394088290643e-01 2.344231209311826714e-01 0.000000000000000000e+00
6.353789866249165419e-01 2.132188790834879111e-01 0.000000000000000000e+00
6.546828575745272660e-01 6.229748379112920453e-02 0.000000000000000000e+00
6.416081928208616780e-01 -1.616318201346045313e-01 0.000000000000000000e+00
4.888733287551243478e-01 1.382513005683461138e-01 0.000000000000000000e+00
7.309309589599545243e-01 -3.742622742324781537e-01 0.000000000000000000e+00
4.417392265193069711e-01 3.135196414808485432e-01 2.839848784893808098e-01
8.612830265029871590e-01 1.153517273382214103e-01 4.268487428854970123e-01
8.827346118978932621e-01 -1.133822258100907199e-01 3.259608619753162628e-01
6.833568561137918218e-01 4.190751158630853235e-01 0.000000000000000000e+00
1.017540897253502719e+00 4.242042229027611633e-01 0.000000000000000000e+00
6.825752784076490887e-01 3.564766502422628269e-01 0.000000000000000000e+00
7.833647058494903614e-01 3.251851972530673818e-01 4.151704338577084652e-01
5.189749991049743549e-01 2.664820481877157032e-01 0.000000000000000000e+00
7.375261993405595184e-01 4.222727392274794322e-01 4.567914315922119162e-01
8.761903533013786216e-01 2.169064827545406082e-01 0.000000000000000000e+00
5.343837839522824762e-01 2.088876495491633900e-01 0.000000000000000000e+00
7.050951978948699628e-01 6.199258392808038032e-02 0.000000000000000000e+00
6.007187526742360228e-01 2.077554888312649339e-02 0.000000000000000000e+00
4.751413615456039352e-01 2.311915490977466403e-01 2.865921914115128200e-01
7.347278801817603844e-01 9.378013737764412383e-02 0.000000000000000000e+00
8.501144351507280428e-01 2.428088130889065610e-01 2.905700645955981987e-01
5.628879320922263174e-01 1.454796742477117988e-01 0.000000000000000000e+00
6.252024707202079590e-01 2.472757645667879034e-01 4.090234919445543404e-01
7.685995788240190807e-01 4.710267448635578891e-01 0.000000000000000000e+00
7.257821832000516116e-01 2.759082544426213479e-01 0.000000000000000000e+00
4.434532755985692853e-01 2.327717501173213188e-01 0.000000000000000000e+00
7.740404130817282180e-01 7.654292349639513215e-02 0.000000000000000000e+00
7.512090073068324880e-01 -7.235982986722300225e-02 0.000000000000000000e+00
6.833343292264814073e-01 -8.407594025454634412e-02 0.000000000000000000e+00
6.167406764447056489e-01 -1.132741861897414992e-01 0.000000000000000000e+00
5.690260573235673691e-01 -5.829040996071066516e-01 0.000000000000000000e+00
6.644043288961244409e-01 -2.768251168469013646e-01 0.000000000000000000e+00
6.117252801642950599e-01 -1.026232193304994489e-01 0.000000000000000000e+00
5.665520241293118264e-01 8.096660353299376389e-01 0.000000000000000000e+00
7.000508735785260228e-01 3.162096108829290930e-01 1.120860910488575835e-01
8.269998866619291400e-01 9.796223990178309915e-02 3.389262961300394394e-01
6.591003025382032865e-01 2.678512712560119358e-01 3.011585775275741339e-01
4.059100284028944738e-01 5.964546540620279114e-01 0.000000000000000000e+00
7.041247717740924950e-01 1.228567894723427978e-01 0.000000000000000000e+00
5.728748445625853059e-01 1.243163522833619083e-01 0.000000000000000000e+00
6.123215025084578489e-01 1.240048140976662827e-01 0.000000000000000000e+00
8.544886684786168196e-01 4.531512848343222100e-02 3.755619013403631579e-01
6.337417888323008119e-01 3.262356635390282200e-01 0.000000000000000000e+00
5.728660764718299658e-01 2.292402713764085664e-01 0.000000000000000000e+00
5.396207755715560772e-01 1.240485036466285607e-01 5.263749531187281727e-01
5.021888422171123523e-01 2.843702804533683182e-01 0.000000000000000000e+00
7.045206977891182998e-01 -1.817159456118060401e-01 0.000000000000000000e+00
4.300013219066183279e-01 4.120400030779651779e-01 0.000000000000000000e+00
9.519520524628406477e-01 3.302331191525693654e-01 5.451051143432261714e-01
7.398580475248059951e-01 -4.842740827198066533e-01 0.000000000000000000e+00
6.684184189656690034e-01 -1.033247773976073702e-01 0.000000000000000000e+00
7.970124295716649598e-01 1.478745462818397138e-01 0.000000000000000000e+00
4.312990226634672020e-01 2.544971157004256579e-01 2.338677746046863293e-01
7.714673332207873102e-01 -3.541519851512653361e-02 0.000000000000000000e+00
7.050526732994930601e-01 2.842200612962978434e-01 0.000000000000000000e+00
6.270751145172304142e-01 4.710365188704979111e-01 3.592091771192096328e-01
3.714349086526788080e-01 4.420209079274798336e-01 0.000000000000000000e+00
7.795549242729533646e-01 4.419477595516753121e-01 0.000000000000000000e+00
6.668968867280444801e-01 5.255304685748019011e-01 4.181327965752631437e-01
6.296640873429790730e-01 -9.743306702622533955e-02 0.000000000000000000e+00
8.423437694021966848e-01 8.740243351105447811e-02 0.000000000000000000e+00
4.970996613223277460e-01 1.019515259238680249e-01 0.000000000000000000e+00
1.010479621001903805e+00 2.074444530123173980e-01 1.481658906060810965e-01
5.502075504031569420e-01 -6.536430379790103551e-02 0.000000000000000000e+00
5.414818795810989460e-01 1.773409288293686936e-01 0.000000000000000000e+00
7.550448913256888606e-01 -1.899342808491804035e-01 0.000000000000000000e+00
5.762589195950345022e-01 3.469509814625756361e-01 0.000000000000000000e+00
6.613606585912487068e-01 -3.461030286960653513e-02 0.000000000000000000e+00
8.908542806984822704e-01 2.848523805062606051e-01 0.000000000000000000e+00
8.721382627376819130e-01 1.588316815465552478e-01 0.000000000000000000e+00
4.636774486092460901e-01 3.196999681360636059e-01 0.000000000000000000e+00
8.018160961943853193e-01 2.216628630458724603e-01 3.016754437968809377e-01
3.882201215876758260e-01 3.918782959134781141e-01 2.160619065656815829e-01
6.773936550485625263e-01 1.827730070602964219e-01 0.000000000000000000e+00
6.691218142245161093e-01 3.593519660849658903e-01 3.148333708061201719e-01
6.582423134627650718e-01 6.458378619243266838e-01 0.000000000000000000e+00
5.611893358974038293e-01 -1.775257860403027799e-01 0.000000000000000000e+00
4.289808793749696481e-01 1.494309163572495880e-01 9.358994737006431919e-02
7.936114512891370154e-01 3.386844118213081511e-01 0.000000000000000000e+00
6.705979750717885324e-01 -2.119015986845285138e-01 0.000000000000000000e+00
6.547657026083150145e-01 1.544844207181099716e-01 1.004288543494094021e-01
5.559794519586701567e-01 7.753300318737166297e-02 0.000000000000000000e+00
6.576036296239380352e-01 3.331420255261721142e-01 3.223906915519297867e-01
3.491787969543471704e-01 5.127787248216375549e-02 0.000000000000000000e+00
5.967527187035097658e-01 1.317671720622690668e-01 0.000000000000000000e+00
9.350746975068271460e-01 1.115585657078279613e-01 0.000000000000000000e+00
7.120523714875519605e-01 -1.866454025166874864e-02 0.000000000000000000e+00
7.493619845189442019e-01 1.071205963195792643e-01 0.000000000000000000e+00
7.450372000184185550e-01 2.262364367116176389e-01 0.000000000000000000e+00
6.873716439658341670e-01 -2.297494802223318811e-01 0.000000000000000000e+00
5.468085492208311083e-01 5.100789906910917493e-01 0.000000000000000000e+00
5.337510124373969767e-01 1.679724471115987550e-01 2.280742121345034068e-01
8.668159560754293835e-01 -7.612713776414148370e-02 0.000000000000000000e+00
7.462406999161492749e-01 2.143817294905244752e-01 0.000000000000000000e+00
4.354827236959895043e-01 4.976607900654284045e-01 0.000000000000000000e+00
1.023513521439425533e+00 5.493810995271183328e-01 3.362057198397095936e-01
4.517833265396500320e-01 1.529041399773141130e-01 3.074691897615829950e-01
7.046186566349832425e-01 2.232695683294716460e-01 0.000000000000000000e+00
9.682748158608218692e-01 2.046529957172906755e-01 0.000000000000000000e+00
6.176933995685423007e-01 1.800690888051547089e-01 0.000000000000000000e+00
7.046085627829339337e-01 2.004225997697886008e-01 0.000000000000000000e+00
7.971763447991193630e-01 2.278980861391297630e-01 0.000000000000000000e+00
6.238490223584771677e-01 -6.985346086615629169e-02 0.000000000000000000e+00
9.692901270691367532e-01 -6.618969859771595132e-02 0.000000000000000000e+00
6.624657254948438379e-01 6.469971871077943026e-01 0.000000000000000000e+00
5.829382260259329263e-01 3.511035925388645840e-01 0.000000000000000000e+00
6.404906777240653160e-01 2.731054076416041809e-01 0.000000000000000000e+00
6.915178925830300916e-01 5.264534861392722309e-02 0.000000000000000000e+00
9.288452177717179126e-01 4.091096943735659242e-01 0.000000000000000000e+00
5.517080328972959746e-01 9.275415615982485207e-02 0.000000000000000000e+00
5.117291853305425686e-01 -8.600539307984100823e-02 0.000000000000000000e+00
8.512507195474896537e-01 1.938174870735431821e-01 4.647333733043983450e-01
8.656955654844475934e-01 4.232129191407412172e-01 9.026344079445514090e-02
8.763793722616655124e-01 4.948365502809484173e-01 3.019295646964021973e-01
6.977411841396480296e-01 -7.945783782300144260e-01 0.000000000000000000e+00
9.206169900511522730e-01 -7.407701391636489774e-03 2.509115244493803631e-01
9.851341837414384628e-01 -1.943128384390766517e-01 0.000000000000000000e+00
7.850368662630765604e-01 3.976920097449351266e-01 0.000000000000000000e+00
5.596215468267179416e-01 5.487109452714485913e-01 0.000000000000000000e+00
5.968424843143115277e-01 2.834220604986690262e-01 0.000000000000000000e+00
8.432213201033859074e-01 2.435699738893850608e-01 6.037887452765310359e-01
7.167976554048208770e-01 3.922787197439129292e-01 0.000000000000000000e+00
6.452531924431315069e-01 3.259149415748778811e-01 0.000000000000000000e+00
5.353371067049825793e-01 4.383798975572653633e-01 1.002657592996025748e-02
3.986916416783179429e-01 1.336620770249052903e-02 6.256559783250987827e-01
8.697610196864975496e-01 2.594275043575298145e-01 0.000000000000000000e+00
5.000783877145439371e-01 4.162039222942073291e-01 4.839769726805089878e-01
4.654726070115113856e-01 4.269659325336454536e-01 0.000000000000000000e+00
7.380063042904391191e-01 -4.824633088945768922e-01 0.000000000000000000e+00
9.451210027663435875e-01 3.448850087932961994e-01 0.000000000000000000e+00
5.523045712232906856e-01 2.001483018877158182e-01 2.965182042726999256e-01
9.521320798465648938e-01 2.704669975767781676e-02 0.000000000000000000e+00
6.894927587333944397e-01 -3.711305815076622050e-01 0.000000000000000000e+00
8.478980488960641271e-01 -3.338954306664001503e-01 1.745501651472187721e-01
7.217161067993320689e-01 2.792682649259318195e-01 0.000000000000000000e+00
8.838933002549143048e-01 -5.428327600256555030e-02 3.143832147433109903e-01
5.800990705315917095e-01 2.801110290989075047e-01 0.000000000000000000e+00
7.998452874556654102e-01 -3.772440505508978248e-02 0.000000000000000000e+00
7.536728568440417275e-01 2.071958095046746440e-01 7.030417113367759541e-02
7.963938951037982106e-01 -1.977814458081719184e-01 0.000000000000000000e+00
5.406318526629526611e-01 2.694496874615521786e-01 0.000000000000000000e+00
6.020941231888046197e-01 -2.162454140616842935e-01 0.000000000000000000e+00
5.557462488611992768e-01 7.365927083149415022e-02 2.462604774577039635e-01
7.451710881075623849e-01 1.289752486066029213e-01 0.000000000000000000e+00
6.971348677523030446e-01 6.275916450961547266e-01 6.938889606675328059e-01
7.703701635223633160e-01 2.400918741755935226e-01 0.000000000000000000e+00
7.703139733287889257e-01 2.591276305022394144e-01 0.000000000000000000e+00
7.583758478262410119e-01 -2.145716795364331908e-01 0.000000000000000000e+00
6.160454763776560538e-01 1.054123008207270562e-01 0.000000000000000000e+00
6.433266090051309449e-01 3.614864907129600180e-01 0.000000000000000000e+00
6.786575219317989571e-01 -6.110383993891765897e-02 2.594257066884014806e-01
4.792413633053436151e-01 9.490104940971932912e-02 0.000000000000000000e+00
7.458748858684587368e-01 2.169165055413637688e-01 4.512345893211816561e-01
5.943238872780746140e-01 6.673576574781234783e-01 3.064185395422561742e-01
5.563499172434839268e-01 -9.250734533175775098e-02 0.000000000000000000e+00
4.136575385910852276e-01 5.507939321753777540e-01 0.000000000000000000e+00
7.264474760140345877e-01 1.833459302839215432e-01 0.000000000000000000e+00
7.039653479427013805e-01 2.492618684707437193e-02 0.000000000000000000e+00
5.277759983949754652e-01 5.028874730702219686e-01 0.000000000000000000e+00
4.680632054285445154e-01 1.464717814943798935e-01 0.000000000000000000e+00
6.474554731404635888e-01 2.496697477216400785e-01 0.000000000000000000e+00
6.642313917515328958e-01 4.587984521560017903e-01 0.000000000000000000e+00
2.188447988852816328e-01 5.334399426149717405e-01 0.000000000000000000e+00
7.557646817357015490e-01 -2.746054443793832789e-01 0.000000000000000000e+00
8.254352442704484538e-01 1.373919819950426557e-01 0.000000000000000000e+00
7.266160133143602096e-01 5.668977763402620607e-01 1.341656071962448182e-01
7.381676914394664779e-01 -1.191666518229610450e-01 0.000000000000000000e+00
1.039801967257186988e+00 2.822416417684090462e-01 0.000000000000000000e+00
8.631119613609428143e-01 1.995309828121597517e-01 0.000000000000000000e+00
7.244414733239108450e-01 2.275731389484672018e-01 1.037915271805227579e-01
1.079732741991831890e+00 -1.020408969003518962e-01 3.293871369005640926e-01
5.406211110191176950e-01 2.301155382683449657e-01 0.000000000000000000e+00
3.343033285431903368e-01 4.663253881649451760e-01 5.294557801992437751e-01
8.066350820687419043e-01 9.040264129951591787e-02 0.000000000000000000e+00
4.716296737167480213e-01 3.271260917209077856e-01 0.000000000000000000e+00
4.312703841149778672e-01 5.699947250330850146e-01 0.000000000000000000e+00
7.409838798858321418e-01 2.191354710807122963e-01 0.000000000000000000e+00
8.056862571621201674e-01 3.651685936717798953e-01 0.000000000000000000e+00
4.540421063693376169e-01 1.078412441338131300e-01 2.692372390509528701e-01
6.012998678093868232e-01 -6.658256960767361399e-02 0.000000000000000000e+00
6.613598522570282023e-01 1.542326807337295325e-01 0.000000000000000000e+00
1.066134578292585733e+00 -3.939880281933498818e-01 0.000000000000000000e+00
6.638248701367706062e-01 4.396174888626380728e-01 2.793927235326578717e-01
8.594234698698619557e-01 -1.246466679973314839e-01 0.000000000000000000e+00
5.877432857120552523e-01 7.413161641341992070e-01 0.000000000000000000e+00
8.912576974271875230e-01 3.131033244036289798e-01 2.695697284298803620e-01
6.285719126015222313e-01 1.529983948166890872e-01 0.000000000000000000e+00
5.645310873820145181e-01 -1.758463699081513898e-01 0.000000000000000000e+00
6.588216110496962763e-01 2.514588562397320759e-01 0.000000000000000000e+00
4.803084280622221813e-01 5.153313269745860570e-01 0.000000000000000000e+00
4.392451291524308576e-01 7.434615228156438160e-02 0.000000000000000000e+00
8.202621328993981997e-01 2.086125913408967136e-01 0.000000000000000000e+00
7.576849102966015659e-01 -2.400117240146295572e-01 0.000000000000000000e+00
6.302189117839480659e-01 1.581961485507917820e-01 1.030514154772759206e-01
6.709827099254018767e-01 -1.676801857626459835e-01 0.000000000000000000e+00
8.411692826382811683e-01 3.214146717253907326e-01 1.067857625849844005e-01
7.870673524403067889e-01 2.893484589928794204e-01 0.000000000000000000e+00
4.335162647812063064e-01 1.991976262901625772e-01 0.000000000000000000e+00
7.906592420221141282e-01 7.408937502571855127e-02 0.000000000000000000e+00
6.833005260647162515e-01 5.407549915739562341e-02 0.000000000000000000e+00
8.109688814836071291e-01 7.236290621914309718e-02 3.747733078805400853e-01
6.432175966411294299e-01 -1.934950373698862691e-01 0.000000000000000000e+00
4.607507721401540302e-01 2.581659872898811603e-01 0.000000000000000000e+00
6.752388839306658896e-01 2.492561103786791188e-01 0.000000000000000000e+00
4.646915151583244086e-01 1.596130244309461599e-01 0.000000000000000000e+00
9.575612555786614521e-01 1.685915397058755927e-01 3.820130483429553525e-01
7.357292604429896965e-01 4.803880634384085635e-01 0.000000000000000000e+00
9.235416185934819389e-01 -1.847619040634218557e-02 0.000000000000000000e+00
6.695289167936548935e-01 1.965194908546643582e-01 0.000000000000000000e+00
4.109116136509436412e-01 1.667804003679711489e-01 4.982588807237842143e-01
7.326100470538933207e-01 4.453361222092837579e-01 5.791546299771924700e-01
7.771375459613627523e-01 3.281457595673905603e-01 0.000000000000000000e+00
5.886019188524702628e-01 3.537098892170345010e-01 2.739600912549926548e-01
8.751161990946573210e-01 4.550928900295043711e-01 0.000000000000000000e+00
5.490433286524436518e-01 2.959970857586815551e-01 3.684825828797431146e-01
7.052301579349218308e-01 2.826217868830227520e-01 2.530208397263842279e-01
6.025116355915398625e-01 -2.105070550140530905e-01 0.000000000000000000e+00
6.397046829447147198e-01 -2.015984420340526384e-01 0.000000000000000000e+00
6.253215408040910805e-01 -1.649931328595863889e-01 0.000000000000000000e+00
5.665899467104499321e-01 3.557375964377891275e-01 6.105498439376366715e-01
7.238440865982684880e-01 -2.544025744274036605e-02 3.964579698155457077e-01
6.868532942563074783e-01 5.351180462028426454e-02 0.000000000000000000e+00
4.319582599302658199e-01 3.845201313601867010e-01 0.000000000000000000e+00
3.805167238800304386e-01 3.175712931518518412e-01 0.000000000000000000e+00
7.956984336613315278e-01 2.334807234630155159e-01 3.645974089317840505e-01
5.203328042902862771e-01 1.874083488602251713e-01 0.000000000000000000e+00
5.471803855814719730e-01 3.177988147787997875e-01 0.000000000000000000e+00
9.353155398506068918e-01 4.196575023143226391e-01 4.652061529416022800e-01
6.913960515970462017e-01 -3.531608135100443580e-01 0.000000000000000000e+00
7.344340434934049089e-01 -4.022682039577989421e-01 0.000000000000000000e+00
5.109627505263254488e-01 4.481676809928619720e-01 1.447172815477526520e-01
5.584974533813690245e-01 5.800914354993236266e-02 2.920337955473208957e-01
6.519445483704693345e-01 1.145165295499421809e-01 0.000000000000000000e+00
7.909552080115116457e-01 -4.780938073142482203e-02 0.000000000000000000e+00
5.525626785683361852e-01 3.170995705652308594e-01 0.000000000000000000e+00
5.851115112047320377e-01 4.010785001032886044e-01 4.705512211183575655e-01
6.734748104334475904e-01 9.274323588551203201e-02 2.689202676792754598e-01
9.059893528346179004e-01 1.689744268270115812e-01 3.432105147247732635e-01
7.624939623393227617e-01 1.023524121315610991e-01 6.643360420224229124e-01
7.190729465954555089e-01 3.412244578745360357e-01 4.609497056863444131e-01
6.227126604111465902e-01 3.925766724363741744e-01 0.000000000000000000e+00
5.850531701600963919e-01 1.056093937890478784e-02 4.424477316817811978e-01
8.492964121679604794e-01 3.064475435294196082e-01 0.000000000000000000e+00
5.925003132495834102e-01 1.284281909519997544e-01 2.997825580860870032e-01
2.649647505436258932e-01 7.460042139018220331e-01 0.000000000000000000e+00
7.036362249748253639e-01 -6.571526717563260789e-01 0.000000000000000000e+00
8.128699931900520426e-01 1.732216880998993513e-01 0.000000000000000000e+00
5.227533006471466459e-01 1.663740355282089523e-01 0.000000000000000000e+00
8.178506182676534841e-01 1.476543101655301005e-01 0.000000000000000000e+00
7.365305992658998102e-01 4.768611646255715986e-01 0.000000000000000000e+00
9.050371097036267187e-01 2.423192754012967187e-01 0.000000000000000000e+00
5.380841705225071214e-01 2.214161315295514187e-01 0.000000000000000000e+00
7.105982675312665364e-01 3.960552479629206868e-01 6.192275525133372760e-01
9.253679438007946789e-01 2.257874874869106874e-01 0.000000000000000000e+00
4.685421699899603443e-01 1.309501949111893104e-01 2.803208900589190256e-01
4.975848945899096210e-01 -1.974541874956701193e-01 0.000000000000000000e+00
7.620391113694005014e-01 -9.666848312155917888e-02 0.000000000000000000e+00
9.274410617040985683e-01 2.831689038836682215e-02 4.459284494191784187e-01
8.195118314996229225e-01 -6.537732427047471262e-03 6.181723699618838497e-01
6.741591080180973083e-01 3.700080248992565490e-01 0.000000000000000000e+00
4.902703121567225653e-01 6.160707038260770929e-04 0.000000000000000000e+00
4.055933314489954533e-01 2.215106022130048924e-01 2.880686618170120727e-01
4.844005158129195410e-01 2.598571622866090447e-01 0.000000000000000000e+00
2.968894817004532616e-01 6.207925191671256338e-01 0.000000000000000000e+00
8.290640080818310054e-01 1.086996431456825896e-01 0.000000000000000000e+00
8.075327187248353411e-01 3.040850441766391743e-01 0.000000000000000000e+00
4.279080603152722873e-01 4.816554435505835396e-01 0.000000000000000000e+00
7.001296389323279357e-01 1.990067536526142211e-01 4.376341805235983706e-01
7.945311614105351472e-01 6.313511236058361176e-01 4.138476953497682853e-01
5.772248985763516194e-01 3.467695840639684057e-01 0.000000000000000000e+00
6.756937976115544586e-01 2.861734001009277328e-01 2.310902558844607491e-01
7.179221987605856059e-01 8.819502256835387577e-02 0.000000000000000000e+00
4.791459112244382812e-01 6.207241564300828296e-01 0.000000000000000000e+00
8.437571400197131366e-01 1.232914661816387758e-01 0.000000000000000000e+00
7.044785010626304356e-01 5.394263680027790997e-01 0.000000000000000000e+00
6.641321399763360223e-01 4.245507201573446299e-01 0.000000000000000000e+00
4.490221149884732199e-01 4.340222913302886898e-01 0.000000000000000000e+00
5.674676459796851313e-01 1.628118205795570095e-01 1.382912850709857588e-01
3.925477255606042437e-01 3.477636454862673698e-01 0.000000000000000000e+00
6.270783806073597644e-01 2.794416524799616663e-01 1.994577552951333210e-01
4.055105167236949804e-01 2.208113856272576614e-01 0.000000000000000000e+00
8.000330332223106744e-01 -2.564110432094204306e-01 0.000000000000000000e+00
5.849579227254831926e-01 4.577313133224056863e-01 5.717122807461539891e-01
7.539791513660167865e-01 -2.563565449843347999e-01 0.000000000000000000e+00
7.096452010688715228e-01 -4.793697279796174104e-01 0.000000000000000000e+00
4.256395909594259397e-01 3.881393813663172043e-01 0.000000000000000000e+00
6.296991259368600602e-01 3.232642844026922813e-01 0.000000000000000000e+00
1.117499332076147933e+00 1.715229893055332244e-01 2.329284075395661180e-01
7.909152040975663267e-01 2.450410344901248205e-01 0.000000000000000000e+00
7.518509781537698888e-01 -1.222258240065157153e-01 0.000000000000000000e+00
7.590218634938480369e-01 2.264549282496848281e-01 0.000000000000000000e+00
6.200515565607757074e-01 -6.280178384305612482e-02 0.000000000000000000e+00
5.653588642709233003e-01 1.010598404822082852e-02 4.494033530123613396e-01
3.997488422699987387e-01 7.102093201422732260e-02 5.180723069602956032e-01
6.033866181719560462e-01 3.846912372545017167e-01 5.416196148221925633e-01
3.329261585003273627e-01 3.147332304123126034e-01 2.069743997969295535e-01
4.265370421735805717e-01 -1.641737959465316976e-01 0.000000000000000000e+00
7.688226841259188094e-01 4.068536390341126463e-01 0.000000000000000000e+00
2.885203479234741408e-01 8.523767919075032617e-01 0.000000000000000000e+00
4.998178227705258880e-01 -9.740919360129840499e-02 0.000000000000000000e+00
6.617923987309670686e-01 -8.905201385466732233e-02 0.000000000000000000e+00
7.759785739590761011e-01 2.967714088422653829e-01 0.000000000000000000e+00
8.174073548465493610e-01 1.894514082415372780e-01 0.000000000000000000e+00
6.412991321665306721e-01 -1.127467795075052237e-01 4.509462908434023198e-01
7.053472870759438518e-01 5.893450592710912650e-01 0.000000000000000000e+00
7.431317471457021817e-01 -1.094632336431895503e-01 0.000000000000000000e+00
5.057259915638895320e-01 -3.148161580898989342e-02 1.726597781486980399e-01
5.853273500842547383e-01 1.829001803261012249e-01 0.000000000000000000e+00
8.414861079809581312e-01 1.014649387277786197e-01 0.000000000000000000e+00
5.463829134546179800e-01 -7.562777234197115561e-02 0.000000000000000000e+00
6.634496712869484281e-01 3.048808372405749090e-01 5.366141072820900249e-01
7.220242063434452184e-01 3.636521518343335257e-01 3.177546950900441702e-01
7.091618818826934678e-01 1.665208643335970295e-01 0.000000000000000000e+00
4.358375247456756085e-01 -2.064505171830299801e-02 4.462649511103996547e-01
8.349255139582594243e-01 2.149422317553911776e-01 0.000000000000000000e+00
5.495602218101204306e-01 7.570534941539697193e-02 0.000000000000000000e+00
6.316733934102880532e-01 2.251480315894651696e-01 0.000000000000000000e+00
9.087971887671955074e-01 2.791428698029903011e-01 0.000000000000000000e+00
1.088784113893737082e+00 2.053570885843669647e-01 4.203041747104753201e-01
7.061739768350832058e-01 -3.000575835790226797e-01 0.000000000000000000e+00
7.409096621562327734e-01 2.634906518867097258e-01 0.000000000000000000e+00
6.037921978350118124e-01 3.583275905480520773e-01 0.000000000000000000e+00
5.842332436990588240e-01 1.721687263086267849e-01 0.000000000000000000e+00
5.863152872579681096e-01 2.003263775967556448e-01 0.000000000000000000e+00