POSCAR from GenerativeModels
1.0
2.000000000000000000e+01 0.000000000000000000e+00 0.000000000000000000e+00
0.000000000000000000e+00 2.000000000000000000e+01 0.000000000000000000e+00
0.000000000000000000e+00 0.000000000000000000e+00 2.000000000000000000e+01
Al As B Ba Be Br C Ca Cd Cl Co Cr Cs Cu Er F Fe Fr Ga Gd Ge H In K Kr Li Lu Mg Mn Mo N Na Nb Ni O P Pd Pm Rb Rh Ru S Sb Sc Se Si Sr Tb Te Ti V Xe Zn
8 4 9 3 17 4 10 13 3 33 15 4 1 5 1 16 6 1 9 2 7 109 6 10 15 16 2 22 13 6 9 15 5 8 21 4 1 1 6 2 2 17 1 13 13 14 6 1 5 11 19 1 11
Direct
5.867823349964056412e-01 5.661326645751628694e-01 5.624802578517392737e-01
4.739082333575972417e-01 5.023503840520878727e-01 0.000000000000000000e+00
6.589697205906031030e-01 -4.487711912957994542e-01 0.000000000000000000e+00
7.372431149830980246e-01 -1.403041146795303007e-01 2.884320790328969153e-01
4.697343505392930219e-01 4.433599222553437080e-01 2.781239833613602386e-01
9.876452143792046057e-01 4.794505249197811292e-01 4.458778482092407014e-01
7.444820773278211234e-01 3.207050095128249900e-02 0.000000000000000000e+00
2.729447947541723263e-01 3.374502833232706500e-03 4.773078329042569345e-01
4.696795664548603089e-01 2.335119895557572489e-01 0.000000000000000000e+00
1.165188407897949308e+00 0.000000000000000000e+00 0.000000000000000000e+00
6.349791774792971077e-01 4.953391094669072903e-01 3.961075910006846001e-01
6.694373862313838242e-01 1.194361406168891193e-01 1.421120215460435210e-01
8.538763015344633667e-01 2.779319876619497087e-01 0.000000000000000000e+00
6.202697169687363399e-01 -1.153939642924561859e-02 0.000000000000000000e+00
7.174883422507236652e-01 6.616844283961502704e-01 0.000000000000000000e+00
4.789635031232082341e-01 1.799117283173368165e-01 5.051106365851076863e-01
7.906836835262480712e-01 4.127390043029139921e-01 0.000000000000000000e+00
3.683340201016775950e-01 1.094163954573535991e-01 0.000000000000000000e+00
5.920086049572376163e-01 2.659427841458852360e-01 0.000000000000000000e+00
1.599745239879829528e-01 5.246129614504273508e-01 0.000000000000000000e+00
1.059118791191013598e+00 1.064156395412196865e-02 4.498957587312426565e-01
5.925556950276582580e-01 6.228556550913877388e-01 0.000000000000000000e+00
5.339179439575725272e-01 1.604097068713240537e-01 0.000000000000000000e+00
5.432168710778564336e-01 2.145347974799483026e-02 0.000000000000000000e+00
4.914658914686236280e-01 2.836974791482005376e-01 0.000000000000000000e+00
6.103004216387175607e-01 1.284995336910206287e-01 0.000000000000000000e+00
7.754899191396321667e-01 7.414827543157401779e-01 3.968322631770584419e-01
6.622852235556752065e-01 -8.734170751167846802e-02 2.400889925603462149e-01
9.888044289305568668e-01 4.032776976728331686e-01 0.000000000000000000e+00
5.476542332138220059e-01 4.839699335413796266e-01 0.000000000000000000e+00
6.453444597623684276e-01 2.185198104468769609e-01 0.000000000000000000e+00
3.913474658517965832e-01 -1.296730091667033236e-01 0.000000000000000000e+00
3.030072319624044219e-01 4.728659302150941546e-01 0.000000000000000000e+00
3.299043612108218948e-01 4.796774728558128587e-02 2.618660349341417337e-01
5.943200346559173175e-01 1.125581577651612042e-01 3.685805740120191576e-01
2.902202927853435588e-01 4.147520837040259423e-01 0.000000000000000000e+00
5.757219222531183567e-01 4.479405221005254845e-01 0.000000000000000000e+00
2.947097792335218180e-02 3.175150899687861905e-01 0.000000000000000000e+00
-2.155829164955838095e-01 7.528615971055883094e-01 0.000000000000000000e+00
4.004247230988636774e-01 1.940815054250638605e-01 5.282004750363915591e-01
6.404778189880112604e-01 3.333123259393749871e-01 1.977581955428808769e-01
5.052052929500886469e-01 3.631734731628355473e-02 0.000000000000000000e+00
4.362133011801671012e-01 2.228404726035089212e-01 0.000000000000000000e+00
7.717583797177375304e-01 5.249430853336009006e-01 3.836201570376487346e-01
7.174473440555489967e-01 2.184260229403446329e-01 1.399591078412083522e-01
6.094090243808293339e-01 1.866802626121094599e-01 2.345827538803613166e-01
4.467754217788708626e-01 2.988013362115182758e-05 0.000000000000000000e+00
9.925198359736526754e-01 2.646817597029678115e-01 4.453638066670443374e-01
4.495777263340723362e-01 3.848890696685696167e-01 5.596217837977416343e-01
6.939193618827276255e-01 5.289726153279338261e-01 4.573406425053450075e-01
2.838519957117441317e-01 5.433724949945105687e-01 4.694520208549826101e-01
9.957418692459496512e-01 4.411676460354687634e-01 0.000000000000000000e+00
6.953741653668300549e-01 1.372580491079820053e-01 0.000000000000000000e+00
8.548133803367129468e-01 1.305276152518144439e-01 0.000000000000000000e+00
9.011485410236155236e-01 -4.046381815286403949e-02 3.061509360431411420e-01
5.612221042457347098e-01 1.949422512349238135e-01 0.000000000000000000e+00
7.618421447113439271e-01 5.684637744288097982e-01 4.671923695556767786e-01
3.675597062435396190e-01 4.049389586928147100e-01 0.000000000000000000e+00
2.989659801739552591e-01 1.518115617739735912e-01 4.274803632496065875e-01
6.838818662092669420e-01 3.846310177829064259e-01 1.869174443419321374e-01
7.253783832650312347e-01 1.280238829666707767e-01 0.000000000000000000e+00
4.322676300207333178e-01 2.579897688205876616e-01 0.000000000000000000e+00
6.405669974231632535e-01 -1.840063235112165962e-02 0.000000000000000000e+00
4.808078500824513046e-01 3.324913833655371853e-01 0.000000000000000000e+00
8.797117995615315600e-01 3.509150220142120968e-01 3.979898026334034444e-01
5.977156464922400714e-01 1.945957541482241648e-01 0.000000000000000000e+00
9.604906714499892306e-01 4.211149015694434228e-01 0.000000000000000000e+00
5.425865946077864654e-01 6.256116470958172915e-02 0.000000000000000000e+00
1.278509421353695164e-01 2.395278765048300951e-01 4.888582623821315920e-01
1.207175604609765918e+00 -1.266516233458172547e-01 4.655134702989838225e-01
6.513669505075346811e-01 4.680950070065152957e-01 0.000000000000000000e+00
6.698425458275506506e-01 2.059285680275770858e-01 0.000000000000000000e+00
6.669471436783489526e-01 2.201225352616826836e-01 0.000000000000000000e+00
8.197232300298810115e-01 4.583876844737166945e-01 0.000000000000000000e+00
6.304723758184238580e-01 3.771046647104058236e-01 0.000000000000000000e+00
3.802896999176927917e-01 -2.978291500831493632e-01 4.579337636506159992e-01
4.114865118810997480e-01 9.685351770450711939e-03 0.000000000000000000e+00
3.893886129328052448e-01 1.516250355310357900e-01 0.000000000000000000e+00
9.065057769782907116e-01 4.828637876673007590e-01 0.000000000000000000e+00
6.288592507667304377e-01 3.938381862097540820e-01 4.632131730200168551e-01
5.734537490229748569e-01 -3.982844494849513417e-02 0.000000000000000000e+00
7.622429195051867445e-01 1.001025116233741352e-01 0.000000000000000000e+00
6.581990751830770758e-01 2.819108016464151323e-01 0.000000000000000000e+00
7.934552532108551937e-01 3.765506811875585225e-01 8.640079622642959922e-02
6.638258000173581364e-01 1.532347321929905526e-01 0.000000000000000000e+00
6.292379285036423520e-01 1.934459060795925556e-01 2.281420665920752544e-01
3.540211846038558985e-01 4.234972132165564229e-01 0.000000000000000000e+00
7.598918182242369035e-01 3.405476040976251895e-02 0.000000000000000000e+00
5.075446457605959916e-01 2.256393190336576371e-01 1.896824154986526123e-01
8.636468704302440180e-01 1.011686223240709781e-01 2.598877899859854956e-01
3.646164747222465641e-01 2.047829653940678174e-01 1.686499398107188519e-01
2.425856646383562909e-01 -2.174687347320172215e-01 1.523113950215256862e-01
6.448577775828083780e-01 8.927587917095458625e-02 0.000000000000000000e+00
6.532373474718773387e-01 8.404677803645121958e-02 0.000000000000000000e+00
6.473880233687142605e-01 3.604040465242119851e-02 4.851995801946034081e-01
7.723526952451935657e-01 1.915851733163983495e-01 3.125415328277609817e-01
8.995537539626824453e-01 8.174192071588470832e-02 3.184153663472830686e-01
1.085872680360369102e-01 2.099056848431989364e-01 5.645312108535284201e-01
6.779736840240930817e-01 2.786673866764959318e-01 2.941310759014041931e-01
4.237907352637587666e-01 5.618414283737674930e-01 0.000000000000000000e+00
1.716209692391466035e-01 2.465212593122911855e-02 4.839456352359614577e-01
4.744117882560869859e-01 3.922451021943653693e-01 1.275633922933960829e-01
4.571149502092406447e-01 3.057363826514098992e-01 0.000000000000000000e+00
1.010748194759760743e+00 6.321542462850804345e-01 0.000000000000000000e+00
8.226649732710948904e-01 4.573662208125046647e-01 0.000000000000000000e+00
7.671452723698246601e-01 -1.974091870773693191e-01 0.000000000000000000e+00
4.375420489091936815e-01 8.624218904462577218e-02 0.000000000000000000e+00
5.543766526188426136e-01 -1.582056135027238852e-01 0.000000000000000000e+00
5.812740791478044899e-01 4.770266520541788235e-02 0.000000000000000000e+00
5.092056910177634732e-01 -1.721268499562189636e-01 1.719626384728928370e-01
7.694617440024704713e-01 2.065705862451873154e-01 0.000000000000000000e+00
6.094820632942294925e-01 4.653359313408276243e-01 3.380310006199523931e-01
7.344342522661492234e-01 6.388447844686840904e-01 0.000000000000000000e+00
5.101222281829339567e-01 4.067338423125834712e-01 0.000000000000000000e+00
5.524750214905557177e-01 7.348971831892447959e-01 4.831457000026668780e-01
7.976841214946096548e-01 3.337020301783175658e-01 0.000000000000000000e+00
6.495511792500257009e-01 2.377488302780271789e-01 2.005053171681948632e-01
3.078960986734005090e-01 -2.980558148407039809e-01 5.561592218408372146e-01
6.467838242372693225e-01 2.416478154984419424e-01 7.257342936150549262e-01
1.500470340023287719e-01 1.131391043403380259e-01 0.000000000000000000e+00
7.331179633316976529e-01 5.454214800395984497e-02 6.173766604092394417e-01
7.883975958094077141e-01 1.461671573418914516e-01 5.442636281305507362e-01
5.816993809932258230e-01 6.827338586543341137e-02 0.000000000000000000e+00
4.127759617883557386e-01 3.046042793146750416e-01 6.496911857317255734e-01
3.088712885073283676e-01 4.510797881445758328e-01 4.445895008018696526e-01
6.884023565461381278e-01 5.046462382118970247e-01 4.251103486297276302e-01
4.357571696254836091e-02 4.777465685111197402e-01 0.000000000000000000e+00
1.238412521635645636e-01 -3.287031868633785159e-01 0.000000000000000000e+00
5.427001008800611537e-01 -1.081730632537232228e-01 3.638822725177526252e-01
6.672149951013173208e-01 3.591943282035230389e-01 0.000000000000000000e+00
5.134001266237860905e-01 3.242843454631938460e-02 0.000000000000000000e+00
6.468243499556829423e-01 1.126697043903460704e-01 0.000000000000000000e+00
8.844359154808046908e-01 3.564801546544323907e-01 4.317520889828481145e-01
9.263739115182945127e-01 5.479367712210406749e-01 0.000000000000000000e+00
6.482159903092047371e-01 -4.666206258151039954e-02 0.000000000000000000e+00
4.466793415177796600e-01 9.168124101562808992e-01 1.569061720215364497e-01
6.659135325111791293e-01 2.348335120558446842e-01 3.415913582341167931e-01
5.021112487518015755e-01 7.084335468069513642e-02 3.747667017297617864e-02
4.560834591693866402e-01 -3.499566751737903658e-02 4.892622217290002462e-01
5.307612509072939799e-01 9.298106760776625457e-02 0.000000000000000000e+00
5.943584607209504433e-01 3.325748612375897251e-01 0.000000000000000000e+00
4.871696448566417148e-01 2.376102515049286490e-01 0.000000000000000000e+00
8.792122472406532774e-01 2.835178417757651115e-01 0.000000000000000000e+00
5.756204395869062296e-01 3.683516461201441494e-01 0.000000000000000000e+00
7.204366198025814461e-01 3.571521806381081632e-01 3.242113407573599115e-01
5.810976886893951532e-01 4.168487844293006228e-01 0.000000000000000000e+00
3.799568785294857864e-01 -1.600571924632716581e-01 2.752649656302217362e-01
3.233776972882025369e-01 1.068783696845134745e-01 0.000000000000000000e+00
4.661819097466812778e-01 1.883808798823061181e-01 6.934980306177807030e-01
0.000000000000000000e+00 0.000000000000000000e+00 0.000000000000000000e+00
5.749832753739327895e-01 1.637043527862117598e-01 0.000000000000000000e+00
4.367383769419024286e-01 8.809863702966957977e-02 0.000000000000000000e+00
8.542510821633050311e-01 3.215803973989643794e-01 0.000000000000000000e+00
-1.197164893405942010e-01 6.249505732886458942e-01 0.000000000000000000e+00
5.983300215841174108e-01 3.505928064648891063e-01 0.000000000000000000e+00
5.215743501142346972e-01 1.263853784185645646e-01 0.000000000000000000e+00
1.277308352089269183e+00 5.445449295061243200e-01 0.000000000000000000e+00
8.442213958510876859e-01 1.685976486500473381e-02 5.430510097903809008e-01
4.788244433013302270e-01 2.295629662469904630e-01 0.000000000000000000e+00
4.999091133007446119e-01 -2.648865204904078396e-01 0.000000000000000000e+00
9.137009649557962243e-01 6.770627884867753687e-01 1.418190629246071088e-01
7.288664715392683124e-01 3.206715868244449652e-01 4.388954983668535981e-01
7.427340292827431245e-01 5.459070148734425088e-01 1.778048199194066648e-01
3.645685817901649362e-01 1.757996841230275997e-01 3.903335385244497413e-01
4.405136796831180535e-01 3.671780393322090497e-01 0.000000000000000000e+00
6.693693755070139195e-01 3.896890028194806010e-01 3.105386946172989937e-01
7.246389435153242076e-01 3.258108574961970927e-01 2.987176032502475431e-01
1.933504523744666859e-01 1.241092801205843088e-01 2.693239508161620055e-01
6.336982388444875047e-01 2.201223540516171751e-01 2.004749621062275056e-01
6.570388456480081851e-01 5.565972468241635607e-01 4.389454815745309491e-01
9.984170878576726915e-01 5.530107650733512292e-01 0.000000000000000000e+00
7.153364094881717872e-01 -1.445588575094833850e-01 0.000000000000000000e+00
6.872479365126179518e-01 1.519665530893663519e-01 4.642728247105782913e-01
9.677301867817957870e-01 2.482050636720638526e-01 6.191736589521288359e-01
1.091827748025943956e+00 5.409173957988803183e-01 5.532393124747370106e-01
7.289246792055527058e-01 3.458422705693906529e-01 0.000000000000000000e+00
6.835157772074250682e-01 3.800013746188692920e-01 0.000000000000000000e+00
4.503092999319515677e-01 3.512065498072063363e-01 0.000000000000000000e+00
3.290239541749266916e-01 1.853354076536783968e-02 4.987793633241248692e-01
7.275737511163615778e-01 -1.087732416337676700e-01 0.000000000000000000e+00
3.868536494348898680e-01 3.819096585934953492e-01 6.045825034552329003e-01
5.596059326106694876e-01 1.008354492350697074e-01 1.258667618705114899e-01
5.333707429080565277e-01 3.175386381542300018e-01 0.000000000000000000e+00
5.999281882062996729e-01 4.993632229679223489e-02 0.000000000000000000e+00
9.267121603072846492e-01 5.786839260709214505e-01 0.000000000000000000e+00
6.183241201135107890e-01 6.200938695090553177e-01 4.430801543324314196e-01
3.362731230575959351e-01 3.006743961954115862e-01 0.000000000000000000e+00
6.358339948742027792e-01 -1.091950011650197894e-01 0.000000000000000000e+00
8.434992786204793536e-01 -3.841975297977824333e-01 0.000000000000000000e+00
7.737459480686105229e-01 6.877051566063996368e-02 2.095324324976467478e-01
1.124049838073941876e+00 6.134846813026648693e-01 0.000000000000000000e+00
3.170266642367294274e-01 4.307004003521357482e-01 0.000000000000000000e+00
9.705932943270001445e-01 7.379811755649341443e-01 0.000000000000000000e+00
3.988493859953607945e-01 7.454797083374009592e-02 2.772275827039267782e-01
3.664562097722124934e-01 3.653673874030860524e-01 3.883137993629468543e-01
4.810325821278811365e-01 1.856185282178683948e-01 3.158020005340926861e-01
7.428157513943142165e-01 3.502536733012027170e-01 3.351132304571483589e-01
5.034469513630912552e-01 9.824846472144788123e-02 0.000000000000000000e+00
6.052696236267695040e-01 9.742474446653848208e-02 0.000000000000000000e+00
5.453444450913877972e-01 4.807346675972390404e-01 0.000000000000000000e+00
7.746199889470269939e-01 -3.189525604981198192e-01 0.000000000000000000e+00
4.763850324044340834e-01 8.500475559669840031e-01 2.956667702876704107e-01
7.474631545056503734e-01 5.714313646225948062e-01 0.000000000000000000e+00
5.052610312014582661e-01 2.935489987938066925e-01 2.365043828731014930e-01
6.854829320433338813e-01 -5.322163743497587696e-02 1.560789321038648092e-01
1.002515714342689268e+00 3.158963287201437264e-01 0.000000000000000000e+00
2.788077691330363983e-01 1.854442705578415174e-01 3.548727443494668066e-01
5.384964424399537597e-01 1.706986559230244671e-01 0.000000000000000000e+00
5.190773925748861650e-01 2.920227665323668065e-01 3.799344471115090327e-01
6.067012599024298458e-01 1.029916127497083611e-01 5.815050250856399483e-01
7.219739865958555436e-01 -1.656112697848750592e-01 4.633034411341208081e-01
7.192760770713761964e-01 4.072587048371705265e-01 3.350123736654981865e-01
5.825741008348227501e-01 5.997203332481506610e-01 0.000000000000000000e+00
5.311896368714119632e-01 -9.706346493939776998e-02 0.000000000000000000e+00
6.432343166794129985e-01 1.731982161120986241e-01 4.570513357795946696e-01
7.603972557489573347e-01 4.427485200646938956e-01 4.701833061047665518e-01
8.322055031499344668e-01 5.576264963620198856e-01 3.067557402444978099e-01
4.487511683041989219e-01 2.328694463802365444e-01 0.000000000000000000e+00
7.160323744746892594e-01 2.630349899195101315e-01 5.574526704609399363e-01
3.490230881280929065e-01 3.515776482769045197e-01 0.000000000000000000e+00
5.823246301492190913e-01 6.243226231235710078e-02 7.922320504973090483e-02
4.549674816267523791e-01 3.813845532362991619e-02 0.000000000000000000e+00
3.866147318763711871e-01 -6.204056548623682055e-02 3.853253549428146130e-01
6.783646146973200119e-01 -4.849460653726112014e-02 3.484331460378662371e-01
5.135189612898184430e-01 8.274840744575129303e-02 0.000000000000000000e+00
4.309505576204910593e-01 2.286334120699948791e-01 0.000000000000000000e+00
5.284796185821359904e-01 -3.314039578865113356e-03 0.000000000000000000e+00
7.372724358041548021e-01 1.778923834187652320e-01 0.000000000000000000e+00
6.046221186966067584e-01 3.054912135856959754e-01 0.000000000000000000e+00
4.884160771985770477e-01 3.317737633209583148e-01 0.000000000000000000e+00
6.964907464874248166e-01 -6.175072718575225217e-02 0.000000000000000000e+00
6.204807268692711375e-01 -5.450429410071011560e-03 0.000000000000000000e+00
5.778581619022362670e-01 1.252027396062608267e-01 1.863614350477672543e-01
3.562068057105987062e-01 2.657593625842260554e-01 3.095682400350583396e-01
5.483183227499747181e-01 3.811410130653776207e-01 4.286147105024302739e-01
5.583589828253820997e-01 2.906360757536641248e-01 0.000000000000000000e+00
5.897023713755501495e-01 3.440346652717760634e-01 5.191582423535542334e-01
6.121657437113255940e-01 1.076838830721957851e-01 3.175463091622414691e-01
5.903539067496171855e-01 1.947078013867158397e-01 0.000000000000000000e+00
8.282937847300824163e-01 3.151591776164206493e-01 0.000000000000000000e+00
6.648192224634192904e-01 -2.587134551464280730e-01 3.288525780519668817e-01
6.637645974437240692e-01 1.464438108073846667e-01 0.000000000000000000e+00
4.274862314472018809e-01 2.536695273825817498e-01 0.000000000000000000e+00
7.646524335950011242e-01 4.897486000165431896e-01 3.629525155927366686e-01
5.706124082491248473e-01 1.677785750220039951e-01 0.000000000000000000e+00
5.992336840612080273e-01 4.751392479475291530e-02 0.000000000000000000e+00
7.376561655405891038e-01 2.105374844177632099e-02 0.000000000000000000e+00
4.941068968670543349e-01 4.255852565777035190e-01 2.344827516815577440e-01
4.041363907168148417e-01 7.466789259104692489e-01 3.350392129650348050e-01
5.565477231896190924e-01 8.287645985238312196e-02 0.000000000000000000e+00
6.692455888634929462e-01 -3.250026520552944387e-01 0.000000000000000000e+00
7.978817165955455204e-01 -2.226223899126240635e-01 0.000000000000000000e+00
2.934629683702484337e-01 2.100319221227237021e-01 0.000000000000000000e+00
5.331846946603799875e-01 1.412979847468364136e-01 0.000000000000000000e+00
3.724245366245015898e-01 1.551626026092336463e-01 0.000000000000000000e+00
6.411043995687082386e-01 2.117380355758149424e-01 1.654110243517536993e-01
4.793886384931358435e-01 -5.718679651511870965e-02 1.010851092842105503e-01
3.784438340595898120e-01 2.578409558050216432e-01 0.000000000000000000e+00
7.177176934626766647e-01 4.088684275623200026e-02 1.603037254484496188e-01
6.474018210850442934e-01 1.454345482477346074e-01 0.000000000000000000e+00
4.209378103123256887e-01 3.689024276083756604e-01 0.000000000000000000e+00
5.827449137423299508e-01 -4.776409767993539113e-02 3.213108554297454678e-01
6.663004886900606438e-01 5.788790267860166594e-03 3.760468315843412679e-01
5.158530043161567713e-01 2.664874255613660647e-01 7.282458769968304102e-01
5.200520663963315027e-01 -3.304532371386128542e-01 0.000000000000000000e+00
6.522862448950301761e-01 9.322829010512490022e-02 0.000000000000000000e+00
3.867263984093582962e-01 6.050644071001500812e-01 0.000000000000000000e+00
4.365222437830642566e-01 3.908142621996875121e-01 0.000000000000000000e+00
2.752255860020258460e-01 2.689855192153132180e-01 0.000000000000000000e+00
4.426594562743140227e-01 3.694854474671711575e-01 6.279161773546002578e-01
5.931813988528783499e-01 3.869925074544281474e-01 0.000000000000000000e+00
8.224361597537586110e-01 2.815754608916454238e-01 0.000000000000000000e+00
7.012681382441590117e-01 4.457033255974669483e-01 6.165963450378151300e-01
4.848502433609139795e-01 4.063737945625411907e-01 1.233271882497010141e-01
6.578981723286831951e-01 5.273168537895910335e-01 1.516259091277156745e-01
6.827060127871004136e-01 3.764402302686351565e-01 0.000000000000000000e+00
1.218109197063161897e-01 4.858275220909995529e-01 0.000000000000000000e+00
4.356350762935772281e-01 6.760658064417879309e-02 0.000000000000000000e+00
6.151359558265591110e-01 4.083362015861142780e-01 2.687702692179589903e-01
6.345680706658144432e-01 3.576522561937358624e-01 0.000000000000000000e+00
5.690247323427776172e-01 -6.476454157165134617e-03 1.736372998134033674e-01
8.285591969778292043e-01 2.662852783922795563e-01 5.214285588413302142e-01
3.669834439000250192e-01 -1.319292494362369617e-01 0.000000000000000000e+00
6.185657471920039674e-01 3.669280863392551106e-01 6.062742887646037637e-01
4.531796371892669040e-01 5.685402365281485570e-01 0.000000000000000000e+00
5.534818856423510125e-01 2.460701976050130302e-01 0.000000000000000000e+00
5.176454629656637163e-01 1.948383136501137258e-01 2.208704201405222722e-01
6.700635222482118625e-01 1.537220087215428466e-01 3.453011112677811800e-01
8.580453764509732295e-01 4.920252475502079337e-01 3.480420383583593402e-01
3.968681334812441674e-01 5.740351711881058749e-01 5.050382035891908261e-01
5.950255106867983201e-01 3.260809001134796770e-01 0.000000000000000000e+00
1.766766948380342761e-01 3.119262742946256051e-01 4.912430544957364642e-01
4.060362700812056858e-01 4.501977603581123200e-01 0.000000000000000000e+00
8.333911920609538004e-01 -7.290279246332209695e-02 6.922130566499151705e-02
6.109270472151183684e-01 1.167348962246286259e-01 6.417905056931577645e-01
7.967869751464455863e-01 5.832566762253046377e-01 3.822271795825687990e-01
6.132720940089115835e-01 2.198281253761159570e-01 0.000000000000000000e+00
5.901935099233548421e-01 2.277136108157893357e-01 4.306654364633051291e-01
2.412411036953983068e-01 3.642153896001287805e-01 0.000000000000000000e+00
3.935993270619064788e-01 5.782894842125252399e-01 4.434132927561129645e-01
2.963569048110319404e-01 5.539716695174267125e-01 5.615077557057621682e-01
2.751290199649458756e-01 3.729307377072346164e-01 0.000000000000000000e+00
7.523844955011451674e-01 1.464230534059945965e-01 4.943466152347220088e-01
9.668149704553772317e-01 3.637099155599987643e-01 5.686957572031635655e-01
6.989076968201195506e-01 5.106039406799739444e-01 3.070853148532994847e-01
6.398567531807501929e-01 -5.979881940487707936e-02 3.645697311602724699e-01
6.736690151546318450e-01 4.946546897733283821e-01 0.000000000000000000e+00
5.224314578923116015e-01 4.280342716552818505e-01 5.084285394643215383e-01
1.100788160803220839e+00 4.841910993641196370e-01 0.000000000000000000e+00
4.962664853514484609e-01 7.355655714706297310e-01 0.000000000000000000e+00
5.775198842615852923e-01 3.814629851686499595e-01 5.763314936531575006e-01
7.258078956406375237e-01 5.644510951008635535e-01 3.752455765458228010e-01
9.922268590918337239e-01 2.956681199056221399e-01 0.000000000000000000e+00
3.739585494700098378e-01 5.867917340146161509e-01 0.000000000000000000e+00
5.237266435678818999e-01 9.550081794777598443e-02 0.000000000000000000e+00
8.350183288787713654e-01 7.891819650585640833e-02 4.465692001361043495e-01
5.975203876852764884e-01 6.284686592510082548e-01 1.607746149964632831e-01
6.568624324373804058e-01 7.455555510963152166e-02 0.000000000000000000e+00
5.576417165547747912e-01 2.151039069465167097e-01 1.734979678380994539e-01
7.405963986170778224e-01 -2.199153296221416642e-01 0.000000000000000000e+00
7.116013689599994807e-01 3.225657690768433117e-01 0.000000000000000000e+00
4.615494602278477076e-01 1.929984594688233246e-01 0.000000000000000000e+00
5.021151858259814693e-01 4.277813425762606592e-01 1.946771927232113786e-01
4.778647207292260335e-01 2.931277781939023441e-01 0.000000000000000000e+00
1.339620812789366733e+00 6.445094094373104987e-01 0.000000000000000000e+00
4.138170077823803972e-01 3.840158116996870152e-01 2.825673992457831130e-01
5.205799869551337444e-01 3.392593569484222416e-01 6.865206575084462637e-01
9.434075760919148346e-01 3.749512593105970293e-01 4.570582381873464772e-01
1.790875802622486912e-01 3.915256179880912679e-01 0.000000000000000000e+00
5.015495074553272259e-01 3.564725487053488351e-01 3.900331439652964249e-01
7.715186498452624164e-01 3.872625091210052384e-01 2.204102661992194401e-01
6.915908184695336303e-01 -1.744167679322305986e-02 0.000000000000000000e+00
5.433922065892231590e-01 1.797489505141538491e-01 0.000000000000000000e+00
8.067058313780480772e-01 7.107730500959813513e-01 0.000000000000000000e+00
6.799135392689050761e-01 2.060873776438942873e-02 5.291078532050302874e-01
3.463488437266584175e-01 4.234789871673961814e-01 0.000000000000000000e+00
3.172481534057769448e-01 4.748287466679579349e-01 2.677694660995899589e-01
4.801571764579459778e-01 2.227385025121867423e-01 2.741220822753647202e-01
6.411129625088541895e-01 4.672446739441427077e-02 0.000000000000000000e+00
7.876222899715102921e-01 4.526434537583219342e-01 0.000000000000000000e+00
4.886319047603591148e-01 7.221766446042310328e-02 0.000000000000000000e+00
4.904293244933943807e-02 8.124904189341546346e-01 0.000000000000000000e+00
9.561693983213898074e-01 3.520268927667826730e-01 0.000000000000000000e+00
1.750573067128959881e-01 6.151391146131923726e-01 3.936527573831962723e-01
2.233803260517822631e-01 2.145151946080718908e-01 6.202823735352606116e-01
7.339568098467362800e-01 1.944143875572209579e-01 1.119416584592738406e-01
4.566329558187738336e-01 5.220426486370028929e-01 4.853971053050851747e-01
5.984943714504561418e-01 -2.449721961605244580e-02 1.321367082254218950e-01
8.617427085917173102e-01 1.361222225899572091e-02 3.765960073272597297e-01
3.608423079453333404e-01 4.667592927689253601e-01 6.917854923178856641e-02
5.233304520883732547e-01 3.351067017438935647e-01 0.000000000000000000e+00
7.907329373002939255e-01 5.493578879686411565e-01 0.000000000000000000e+00
5.631251543255665348e-01 4.555909342897697112e-01 0.000000000000000000e+00
4.682351764349832468e-01 2.702395059887334750e-01 5.497389163828966252e-01
5.689230373428146859e-01 9.625651071592722374e-02 0.000000000000000000e+00
4.846824688322597385e-01 3.964055382976896524e-01 6.442483345819005613e-02
5.517178565480981289e-01 1.746375510319501112e-01 5.354206233184051200e-01
3.173821960292617650e-01 2.250662600162602889e-01 0.000000000000000000e+00
4.994853669433242382e-01 3.531857471802217763e-01 8.844613707717563500e-02
9.687672793866637377e-01 4.548715484225628325e-01 0.000000000000000000e+00
4.863745711584768205e-01 3.372684138912643848e-01 0.000000000000000000e+00
4.225198161702491406e-01 3.529078265436746964e-01 0.000000000000000000e+00
5.434413800862993860e-01 5.740602541559358674e-02 0.000000000000000000e+00
5.132596129606563640e-01 3.603381643591665462e-01 3.906182720190618518e-01
6.021196461314086701e-01 5.799503676057677914e-01 0.000000000000000000e+00
5.208488888269297012e-01 -7.500015445239416323e-02 0.000000000000000000e+00
7.660172931890398829e-01 4.881688725080048918e-01 2.356803929747293136e-01
4.455102433846716004e-01 5.449732974465459900e-02 7.339627534788401020e-01
3.520060430097076143e-01 4.249132068526320083e-01 4.660971802919340323e-01
6.201448870704843186e-01 2.448906714122989214e-01 3.019147057263475986e-01
4.764161743369881297e-01 -2.129526495645237549e-01 0.000000000000000000e+00
3.461229610504326093e-01 4.555770415136479734e-01 0.000000000000000000e+00
2.605218357372403037e-01 2.580299290416834257e-01 0.000000000000000000e+00
5.495135830730873971e-01 4.755718043387138216e-01 0.000000000000000000e+00
5.885157135608164447e-01 2.199351148389276922e-01 0.000000000000000000e+00
9.545999185558007305e-02 7.511722243969790602e-01 0.000000000000000000e+00
3.159895918894572997e-01 1.245765035962868028e-01 5.504276394265897876e-01
6.907429261143273047e-01 5.881037394433341614e-01 8.590349774235939151e-02
4.539651302650147269e-01 8.632251852861294594e-02 4.482570506934504539e-01
4.711619219287228599e-01 1.677970231707982540e-01 3.787752279019249713e-01
3.528560178612900611e-01 3.414959192951854128e-01 0.000000000000000000e+00
4.626689334457896319e-01 4.290022090236572661e-01 2.243080528722318778e-01
8.020566720258046622e-01 8.835132004004475625e-02 4.851643170369657199e-01
5.710675863254326412e-01 -1.946565760213416763e-01 4.855453617374976272e-01
7.918757051693042781e-01 2.798555735644638887e-01 0.000000000000000000e+00
4.586546308385829329e-01 -4.983536980960101559e-02 0.000000000000000000e+00
8.533434162395613365e-01 3.803379216291402631e-01 8.263308967536842076e-02
6.398466911252518319e-01 5.129413516807037610e-01 5.823851863961626574e-02
5.042362976141908648e-01 3.127679739655138125e-01 2.221249333051246166e-01
6.788559598866978906e-01 7.591954378794341096e-03 4.870583197811853005e-01
5.810854629150853379e-01 2.778852421995712252e-01 6.010589097347537324e-01
4.895566257878042338e-01 2.943984588949684067e-01 0.000000000000000000e+00