POSCAR from GenerativeModels
1.0
2.000000000000000000e+01 0.000000000000000000e+00 0.000000000000000000e+00
0.000000000000000000e+00 2.000000000000000000e+01 0.000000000000000000e+00
0.000000000000000000e+00 0.000000000000000000e+00 2.000000000000000000e+01
Ag Al As At B Ba Be Bk Br C Ca Cd Cl Cm Co Cr Cs Cu Dy Er Eu F Fe Fm Ga Gd Ge H Hg Ho I In Ir K Kr La Li Md Mg Mn Mo N Na Nb Ni No O P Pb Pd Pm Rb Rh Ru S Sc Se Si Sr Ta Tc Te Th Ti Tl Tm U V Xe Y Yb Zn Zr
1 9 5 2 9 1 9 1 5 15 13 7 44 1 17 2 4 6 2 1 1 11 6 5 10 5 10 217 5 1 2 2 4 10 12 1 33 10 24 7 2 8 18 1 8 1 19 8 2 4 1 6 2 2 21 15 10 17 1 4 1 2 1 15 1 2 3 27 12 2 1 8 1
Direct
7.071011055801433853e-01 6.708103702169053717e-01 0.000000000000000000e+00
1.796108030912731968e-01 5.372792660956223765e-01 5.303135678456247781e-01
9.489277001317550919e-01 7.226500773276640643e-01 0.000000000000000000e+00
6.396269416545776743e-01 5.459511894259524434e-01 0.000000000000000000e+00
2.061028400711526487e-01 3.424112788678062014e-01 0.000000000000000000e+00
9.076051739682041708e-01 7.151186000492427697e-01 0.000000000000000000e+00
1.262288922645702360e-01 5.152357783030802052e-01 2.521657843815350297e-02
3.201610561404009125e-01 2.266878257667808150e-01 0.000000000000000000e+00
7.414412208352793021e-01 3.438456017585286295e-01 0.000000000000000000e+00
3.293673066583411302e-01 5.224823541702670049e-01 8.633949041719812811e-02
5.531624972714249688e-01 2.826302630461061671e-01 0.000000000000000000e+00
5.944801569690265630e-01 4.068853298951855546e-01 2.892627216649990007e-01
4.515185402871007003e-01 3.135053855383886923e-01 0.000000000000000000e+00
1.587583833870346295e-01 3.823897339511801441e-01 4.755544341235792283e-01
4.573141397076228021e-01 5.225132208338522100e-01 2.356310639013768915e-01
6.609669429263506091e-01 5.174634021503631276e-01 0.000000000000000000e+00
4.654470081456907327e-01 5.837766869285131444e-01 0.000000000000000000e+00
4.834122146765169603e-01 6.005719864831093879e-02 0.000000000000000000e+00
5.050835909238616805e-01 3.619233959650847154e-01 0.000000000000000000e+00
8.497453350536265937e-02 6.052464302345295089e-01 3.498341364138002341e-01
3.694534550968446851e-01 1.690796846629174510e-01 0.000000000000000000e+00
2.358590379702777406e-01 5.421711903986288217e-01 0.000000000000000000e+00
3.728596761133837756e-01 4.773060480785038528e-01 0.000000000000000000e+00
2.070999961220825192e-01 5.093851803199066497e-01 0.000000000000000000e+00
4.156347138440426026e-01 2.907160520670288850e-01 2.761036235819346318e-01
3.759048507430688968e-01 2.818946624250335820e-01 0.000000000000000000e+00
3.802087511695844135e-01 3.380626945750092593e-01 0.000000000000000000e+00
1.660170952821199419e-01 2.812547105503209188e-01 5.595317564113115871e-01
4.150890901473620609e-01 2.640952419621573899e-01 0.000000000000000000e+00
3.384909835856508842e-01 5.237030037455635556e-01 0.000000000000000000e+00
3.280829677629900631e-01 2.291632314927873892e-01 3.561620710250132937e-01
2.557199733578850998e-01 2.978399854107640632e-01 2.198525155354805749e-01
7.006991408864081672e-01 3.166118433021513079e-01 1.622144291372407121e-01
3.524085612279537205e-01 3.831902817671233308e-01 0.000000000000000000e+00
2.535479985710286099e-01 3.129740558633986591e-01 0.000000000000000000e+00
9.444477339143180217e-01 4.674675179192480101e-01 0.000000000000000000e+00
5.581731636741156244e-01 1.846336013889844363e-01 5.229566286017618415e-01
5.373573749226434604e-01 3.009001972059492935e-01 0.000000000000000000e+00
8.412092007251447123e-01 3.264218311302959918e-01 2.494926374747218345e-01
-2.667714210956300125e-01 4.286476982904964261e-01 0.000000000000000000e+00
4.100310511693301407e-01 6.370963243094047712e-01 0.000000000000000000e+00
6.711345219724099698e-01 1.306114347053284330e-01 0.000000000000000000e+00
4.584910805972199910e-01 4.272152640340701746e-01 5.390604215190402115e-01
6.661058698111852472e-01 4.915438351235017489e-01 4.321356159274942765e-01
4.702497601629007651e-01 7.484211652935974790e-01 0.000000000000000000e+00
2.638599375820360748e-01 1.903800500135224283e-01 0.000000000000000000e+00
9.096108334930570471e-01 7.573960866110797108e-01 0.000000000000000000e+00
1.166403231386730077e-01 1.848914917159895088e-01 4.595640970946783810e-01
8.673471895825731748e-01 7.971539567167129636e-01 0.000000000000000000e+00
5.316804273566030359e-01 1.572474658032909645e-01 8.247098983000743511e-01
5.185408715048430706e-01 5.778546300598844665e-01 0.000000000000000000e+00
5.895896697142493093e-01 3.286455778041224018e-01 0.000000000000000000e+00
5.542263390245902865e-01 3.805711278098532491e-01 0.000000000000000000e+00
3.831857713845900903e-01 6.337306606457970837e-02 0.000000000000000000e+00
5.464846775669127688e-01 4.738511622432797221e-01 0.000000000000000000e+00
5.969376620200541605e-01 3.358132445253655396e-01 1.074263570063859197e-01
5.554040299168131467e-01 3.643556426227865241e-01 0.000000000000000000e+00
3.641894787352550900e-01 5.668301171849570164e-01 0.000000000000000000e+00
7.464154468853587687e-01 4.029822094582089509e-01 3.306442603662842483e-01
1.428610238172122182e-01 2.057526807670827518e-01 0.000000000000000000e+00
4.859171604379446396e-01 5.299417490983515666e-02 3.332859751972125917e-01
4.916020555393416647e-01 3.685152695099618292e-01 2.502175800115488125e-01
7.956146823079338626e-01 3.382569690795678152e-01 7.536196459534005854e-02
5.454665366646184177e-01 4.854699454283344373e-01 0.000000000000000000e+00
5.963494608968138433e-01 5.246791193893705074e-01 0.000000000000000000e+00
8.889121368400938472e-01 7.800297472532294885e-01 0.000000000000000000e+00
3.559492378565001225e-01 2.521529874640984215e-01 0.000000000000000000e+00
2.845252146739681853e-01 3.684016301538484139e-01 3.349399272870761113e-01
6.875938326156965097e-01 3.517052410539001084e-01 3.924630311652275161e-01
6.390933865443400030e-01 2.002705126354062948e-01 3.963570836975141010e-01
3.003062116067478637e-01 3.260931250145393534e-01 0.000000000000000000e+00
7.222250130086508291e-01 4.736595284090183711e-01 0.000000000000000000e+00
7.970858449397989487e-01 6.242992728890178755e-01 0.000000000000000000e+00
4.777436029034302090e-01 1.704868070082686815e-01 2.599280815504800835e-01
8.419536731425799614e-01 5.996121099108349117e-01 0.000000000000000000e+00
8.187995935919046842e-01 7.164162661489191786e-01 0.000000000000000000e+00
3.268934007217960680e-01 4.240293234183669657e-01 0.000000000000000000e+00
2.697315373676578698e-01 3.452926546221299908e-01 4.969122585751201138e-01
4.435070459124066389e-01 4.783692632672705836e-01 0.000000000000000000e+00
9.710620060784611596e-01 7.143404828201521672e-01 0.000000000000000000e+00
4.997637490431132701e-01 2.636979741101521668e-01 0.000000000000000000e+00
9.111479368872222873e-01 5.885681869839503033e-01 0.000000000000000000e+00
7.704702167780985711e-01 6.485553167174926692e-01 0.000000000000000000e+00
6.348572763867061930e-01 6.888270154244304777e-01 0.000000000000000000e+00
8.841773965225794285e-01 8.432434760576577037e-01 0.000000000000000000e+00
3.146415847553512002e-01 2.634290954716148603e-01 3.606386555121183779e-01
1.318048357253375213e-01 8.069387925218274304e-02 4.124139962457992192e-01
6.022879520773432027e-01 3.090280568179711862e-01 2.841716777446925413e-01
3.964287928749383738e-01 3.600433664131627021e-01 0.000000000000000000e+00
3.468696603472194440e-01 4.411287398102442525e-01 0.000000000000000000e+00
5.006074422706842109e-01 5.922106108289377779e-01 0.000000000000000000e+00
2.678938320712409560e-01 4.972962447970048494e-01 0.000000000000000000e+00
1.136563645584357518e+00 8.010406852267023536e-01 0.000000000000000000e+00
3.982147498045520706e-01 5.894425436647843242e-01 6.187870427611812385e-01
8.765956876140235110e-03 -3.821790924976831150e-02 6.345329086983583222e-01
3.654520485042183076e-01 5.327651620093386553e-01 0.000000000000000000e+00
6.224099542538045204e-01 3.780374300185259662e-01 0.000000000000000000e+00
8.119956569780898414e-01 6.218054988039780628e-01 0.000000000000000000e+00
6.153392508213219037e-01 4.630263000716661193e-01 5.348486655095625597e-01
6.099386797362839063e-01 6.657997019842702979e-01 0.000000000000000000e+00
4.205118510052067160e-01 2.382585280064081212e-01 0.000000000000000000e+00
7.379987534398645410e-01 1.535904244191391710e-01 0.000000000000000000e+00
1.637619155013636529e-01 4.503758118386099740e-01 0.000000000000000000e+00
5.466542236420791623e-01 6.348031276066604667e-01 0.000000000000000000e+00
2.728497537887546454e-01 3.795966891437489998e-01 4.680774876126865269e-01
6.362790950119251443e-01 1.768456740211442613e-01 3.588042566578906190e-01
4.221325869388741214e-01 2.364322177240711920e-01 0.000000000000000000e+00
8.045834765849039227e-01 5.016538470133451444e-01 0.000000000000000000e+00
4.326967407315037706e-01 2.187254061702161856e-01 0.000000000000000000e+00
2.695467802695246107e-01 5.240273248667297601e-01 0.000000000000000000e+00
1.449810697016316041e-01 8.751210614753412997e-02 2.919611171977505304e-01
3.755806808536652497e-01 4.966212435207848497e-01 0.000000000000000000e+00
6.246070029485110142e-01 9.122648103814285925e-01 2.366580209196099682e-01
6.808533496752846581e-01 4.165832932345893136e-01 9.915933387168884838e-02
3.305507361465346294e-01 4.019335825362589931e-01 2.735247603185626541e-01
4.609604859747993277e-01 8.352644044951929025e-01 3.206578813305893672e-01
3.733636357177128051e-01 5.320187473386117638e-01 1.894290213965221792e-01
1.769956867725741567e-01 9.589958217872895929e-02 4.469816237496571087e-02
6.904149409276207905e-01 6.193724538367958443e-01 1.657734710507809961e-01
5.416364525688001086e-01 5.195232766496152843e-01 0.000000000000000000e+00
8.045252899320551876e-01 7.173757614676105065e-01 0.000000000000000000e+00
-1.912114054275071418e-02 4.591695374122639617e-01 0.000000000000000000e+00
8.714781079301652245e-01 4.493291299037756037e-01 0.000000000000000000e+00
3.109462503497709696e-01 6.947334844467305537e-01 0.000000000000000000e+00
4.452190378112974578e-01 5.098308194080589661e-01 4.661339906500805430e-01
3.800418342691073148e-01 7.420770508363790929e-01 1.869015298518240664e-01
6.568169357921905815e-01 1.574053884806010384e-01 6.764267318014413055e-01
2.916565142709839353e-01 1.685854420531722742e-01 5.236556902943408920e-01
8.867147976529076159e-01 7.401573965535714894e-01 0.000000000000000000e+00
3.040480383400756548e-01 4.069483182550738265e-01 0.000000000000000000e+00
9.517763811348487479e-01 5.524184586141417386e-01 0.000000000000000000e+00
4.352177584905541075e-01 4.418784819258991803e-01 0.000000000000000000e+00
5.831624021961006044e-01 3.024618865562165304e-01 1.739323251026061445e-01
5.884524297966006179e-01 3.187937436165793059e-01 4.578737114534456865e-01
1.986482347712072993e-01 4.025516327861208277e-01 1.577444670375396374e-01
4.114646141436578697e-01 5.289830182814434512e-01 0.000000000000000000e+00
4.226054115809558809e-01 7.267259464690933868e-01 0.000000000000000000e+00
5.074092790939438435e-01 4.335643845085479509e-01 2.108658954176441114e-01
4.416256618706505543e-01 7.317903116058022128e-01 0.000000000000000000e+00
9.373344386542730167e-01 7.464888748425377862e-01 0.000000000000000000e+00
9.222646506833598323e-01 7.507659661794309214e-01 0.000000000000000000e+00
3.245342298768101319e-01 4.960159537271056074e-01 2.192480991581318150e-01
8.088820601280212186e-01 1.019085272317387547e+00 0.000000000000000000e+00
4.067729606062269188e-01 5.049395030581866894e-01 0.000000000000000000e+00
4.434939519429983434e-01 6.145719499608133241e-01 0.000000000000000000e+00
4.385029710570378381e-01 6.103772069480299933e-01 0.000000000000000000e+00
9.615369796752930576e-01 0.000000000000000000e+00 0.000000000000000000e+00
4.210530772731366778e-01 7.180713227157700107e-01 0.000000000000000000e+00
6.112487782965780880e-01 4.128700134687917078e-01 0.000000000000000000e+00
1.185606674200843091e-01 1.686154045632043408e-01 3.400236822105409118e-01
4.218149480551806052e-01 4.665513120806814573e-01 2.787549277102838730e-01
4.296716508068825213e-01 4.954834040794242611e-02 0.000000000000000000e+00
1.086286838075072980e+00 7.675258311449546511e-01 0.000000000000000000e+00
2.964782241068061319e-01 4.463168856039598786e-01 0.000000000000000000e+00
5.372195631621780043e-01 5.765548005153996458e-01 0.000000000000000000e+00
3.405085531392717524e-01 2.922173845645772428e-01 0.000000000000000000e+00
2.811910784441340461e-01 4.077662362584666411e-01 5.631700376138630837e-01
4.056700849154835087e-01 5.037879339200846962e-01 0.000000000000000000e+00
5.317586946717235419e-01 4.076266143357485383e-01 4.724649597244564569e-01
1.049528610675684259e+00 1.102243140699976420e+00 0.000000000000000000e+00
2.994324536470265308e-01 2.267229434887333417e-01 0.000000000000000000e+00
6.236807341935821647e-01 5.801461564960406214e-01 0.000000000000000000e+00
1.989638056582595516e-01 4.484558639554545589e-01 5.064343118651626341e-01
4.632292622196035881e-01 2.645580623955321453e-01 0.000000000000000000e+00
4.510808035959670281e-01 5.538361507989972843e-01 8.438999667391500203e-02
8.144748057284184606e-01 8.343993605284275583e-01 0.000000000000000000e+00
2.293352212909323118e-01 1.067665445714379713e-01 5.554315518939733076e-01
4.354841902274650955e-01 2.143862032598886636e-02 0.000000000000000000e+00
5.114340684545738425e-01 2.468815328845607171e-01 0.000000000000000000e+00
5.221287626664361525e-01 4.877792987533036140e-02 0.000000000000000000e+00
1.064499739711181059e-01 5.111657505182843897e-01 2.575965376515976235e-01
6.059441735663635420e-01 2.263112752001930073e-01 0.000000000000000000e+00
2.766177538832130800e-01 4.811830678259467753e-01 1.867043933427272595e-01
5.996465752056934218e-02 2.791520796274601368e-01 6.564719707472721488e-01
8.465977990858353230e-01 7.980225492838882717e-01 0.000000000000000000e+00
8.404152935025394067e-01 4.592003296769446852e-01 0.000000000000000000e+00
5.771280777097159698e-01 3.375132605107838968e-01 1.441234663432930940e-01
6.160041595120884228e-01 -1.226768911300823994e-02 0.000000000000000000e+00
4.672418974877741160e-01 3.307776538776047159e-01 0.000000000000000000e+00
1.602275773110614088e-01 1.046341118536930681e+00 0.000000000000000000e+00
1.962783403909215130e-01 5.652643669765697876e-01 0.000000000000000000e+00
2.393808105399115593e-01 5.875430493825607448e-01 0.000000000000000000e+00
4.717409906087792759e-01 4.582191550846174133e-01 5.045665277714855845e-01
6.421587679860887299e-01 7.401886280684013553e-01 0.000000000000000000e+00
3.915900446441240579e-01 3.542031963191305532e-01 0.000000000000000000e+00
2.282517619987065594e-01 4.053020369803772560e-01 0.000000000000000000e+00
4.978250239649837372e-01 3.720242340633350686e-01 0.000000000000000000e+00
2.977918974301353439e-01 4.735414204223920009e-01 0.000000000000000000e+00
2.704011756879893813e-01 6.741680444781249504e-01 0.000000000000000000e+00
3.118347424258736122e-01 4.675799271085363529e-01 0.000000000000000000e+00
1.257871927257186995e-01 1.056024714034426992e-01 2.501319797719943061e-01
5.274906700570626272e-01 6.332919088735478041e-01 2.409648569455209444e-01
3.417080510782957159e-01 4.753561363154532593e-01 0.000000000000000000e+00
4.523784111384505646e-01 8.344147841988247549e-02 0.000000000000000000e+00
3.185774959220180058e-01 4.542514693517430979e-01 4.256619283453719760e-01
6.033452239178405119e-01 4.678211256505956372e-01 0.000000000000000000e+00
7.067296009771181220e-01 4.827250935071747406e-01 0.000000000000000000e+00
5.069675757687190920e-01 7.080829806132573623e-01 3.175175823426719113e-01
0.000000000000000000e+00 0.000000000000000000e+00 0.000000000000000000e+00
3.302678307319937279e-01 3.851443073582903054e-01 0.000000000000000000e+00
6.646991444375439650e-01 7.432371429543640495e-01 3.230083197102452397e-01
4.342772769257607912e-01 4.719716113473249042e-01 0.000000000000000000e+00
6.544009153871883644e-01 7.121309845593453147e-01 0.000000000000000000e+00
1.151818818528608235e-01 2.917950095715823311e-01 2.475392450128767186e-01
9.820222695154376957e-01 1.159874756281116470e+00 0.000000000000000000e+00
4.721354720871886457e-01 2.048949998201459177e-01 3.050286374694820557e-01
4.454646686658151333e-01 -1.037069801668888402e-02 0.000000000000000000e+00
5.441865075216013592e-01 8.361113923577813134e-01 0.000000000000000000e+00
7.465436206302311639e-02 3.757082966853468875e-01 0.000000000000000000e+00
5.963577202952560219e-01 4.617338396471331041e-01 0.000000000000000000e+00
4.096495482213531325e-01 5.718081035474393836e-01 0.000000000000000000e+00
2.305190025947452259e-01 6.332555161792703391e-01 1.167287462332744497e-01
7.776892144939295815e-01 5.932917978059373265e-01 0.000000000000000000e+00
5.913801771167237487e-01 5.447763093841526683e-01 0.000000000000000000e+00
1.893251910549964556e-01 6.916342697064292722e-01 2.006630812527899765e-01
-1.735489148926876446e-01 7.795591375089503394e-01 0.000000000000000000e+00
1.062181853057518888e+00 6.809874975727880919e-01 0.000000000000000000e+00
4.144591019905667917e-01 8.112673912085329730e-01 9.502895530130561763e-02
3.128609457819966355e-01 5.037973583122912213e-01 0.000000000000000000e+00
6.246795128615806325e-01 5.624917437219099092e-01 1.174953745598765753e-01
5.757910775513003232e-01 2.167158866661278438e-01 0.000000000000000000e+00
3.840195825447551004e-01 6.180383229466710482e-01 2.084988458377168286e-01
7.686356837395651453e-01 7.758470634749305983e-01 0.000000000000000000e+00
4.137068417280824750e-01 9.709817215114324718e-03 4.163163266550641284e-01
3.570228432366260307e-01 1.840505020648879331e-01 0.000000000000000000e+00
5.027475784200425846e-01 2.382932896060151462e-01 0.000000000000000000e+00
5.289550257692068325e-01 5.897704706350921366e-01 0.000000000000000000e+00
2.509770153938231108e-01 1.880936787507013763e-01 4.532421176305017063e-01
4.747197182645181979e-01 3.174893415735977609e-01 0.000000000000000000e+00
4.673668644136022010e-01 7.399573846453361137e-01 6.945980964531536239e-01
9.894592813181024571e-02 4.898668797304472911e-01 3.621268791997600545e-02
1.020988665303673493e+00 5.711057527410118295e-01 7.109132785012249878e-01
2.234358182208505683e-01 5.998325653823666226e-01 0.000000000000000000e+00
3.017966605430542071e-01 2.071493823895986797e-01 0.000000000000000000e+00
5.056438399238297743e-01 4.751705084050037442e-01 0.000000000000000000e+00
4.066032136098889360e-01 6.008266152049590580e-01 1.225959530647070528e-01
3.833656053266758512e-01 5.873032901455733645e-01 3.202673088089299513e-01
4.128804493136524201e-01 4.601202049781584202e-01 4.294668072765350786e-01
5.195882577098752675e-01 1.198222119772249794e-01 6.552145836778423549e-01
6.302574175835888859e-01 9.312206314281502584e-01 0.000000000000000000e+00
2.930213795195608650e-01 6.779969156013933018e-01 0.000000000000000000e+00
-4.207583888678301243e-02 6.326787806744649245e-01 0.000000000000000000e+00
6.217993505419266986e-01 1.534073849945589707e-01 2.607960967444447054e-01
4.143882541253502971e-01 5.813090529030829900e-01 0.000000000000000000e+00
6.036426915291430717e-01 3.285304437278537826e-01 0.000000000000000000e+00
6.556876819755120822e-01 5.974738541924250468e-01 0.000000000000000000e+00
6.326800986824526740e-01 4.925047587109405711e-01 0.000000000000000000e+00
7.027967738116803753e-01 7.875006646730442483e-01 0.000000000000000000e+00
6.446640371354762644e-01 1.440679853303445945e-01 0.000000000000000000e+00
1.593083202389251607e-01 4.264494925710131668e-01 0.000000000000000000e+00
5.839280660303383108e-01 7.471245343611153666e-01 4.756829635748871521e-02
4.071111907316069534e-01 8.096508310105342554e-01 1.557828296414716096e-01
2.313188375457978507e-01 1.404058480948912058e-01 3.422807538016326978e-01
-3.204488716828768347e-03 2.379455437880548807e-01 0.000000000000000000e+00
5.418489696129690225e-01 4.140578037675562983e-01 2.476047300819410601e-01
2.317983025581292766e-01 8.922454921071084621e-01 3.923448216918543618e-01
7.470482241748874763e-01 6.203796844295009771e-01 0.000000000000000000e+00
2.670825338704343466e-01 6.074538072709230185e-01 0.000000000000000000e+00
1.889492015277427495e-01 2.402434757875501203e-01 3.890590858486349113e-01
-1.209701334457258248e-02 3.398597777647094365e-01 3.879903759553361420e-01
3.777589220409494075e-01 6.105409656189612067e-01 0.000000000000000000e+00
5.915604175267968889e-01 6.692475648598710247e-01 7.735219552934688991e-01
3.245447476283354060e-01 5.072844130587854661e-01 6.214657984986962092e-01
5.125999736794798478e-01 6.176204611474651607e-01 0.000000000000000000e+00
2.568431759213016807e-01 5.003507625270791070e-01 5.220868851596714988e-01
1.186042118994427019e-01 -7.305841421418812764e-02 5.138112977901804213e-01
6.180580444365085802e-01 5.858002744628287850e-01 0.000000000000000000e+00
3.893140140212600908e-01 5.082419001321961671e-01 0.000000000000000000e+00
7.639399038157153043e-01 4.088427630095354814e-01 0.000000000000000000e+00
1.563301365019779121e-01 6.142508146904446242e-01 0.000000000000000000e+00
3.695452895748152500e-01 2.030239064683592165e-02 3.945512830149633388e-01
6.259101020056612175e-01 4.316384902876637675e-01 2.668515475050479147e-01
4.913152997233618535e-01 6.736356971877150990e-01 0.000000000000000000e+00
2.521101918904602446e-01 1.723213142173087853e-01 0.000000000000000000e+00
6.583742485883812279e-01 4.320538898820958096e-01 2.564053955267857621e-01
4.712828130550559269e-01 3.196351884061447990e-01 2.151818843022363925e-01
2.794853596888882130e-01 3.645399628716858853e-01 0.000000000000000000e+00
7.187891976115158288e-01 5.989544680050590264e-01 1.253659085854306188e-01
5.225269457141654694e-01 1.614595771225361132e-01 0.000000000000000000e+00
3.990126551100228181e-01 -2.170659630800479967e-01 8.932572250051729057e-02
3.597446584577213002e-01 9.065900083861144765e-01 2.426127570213820750e-01
3.467775068992425824e-01 6.125545496243649524e-01 3.729381204005757233e-01
5.392155758731908000e-01 3.704985109119700581e-01 0.000000000000000000e+00
1.070200022454977029e+00 7.596146612854451918e-01 0.000000000000000000e+00
8.784139057351698643e-01 8.143660229426166186e-01 0.000000000000000000e+00
4.640315594571806646e-01 7.926730842133633548e-01 1.117783760708305207e-01
1.832894403454714549e-01 3.874437308646597744e-01 0.000000000000000000e+00
6.024786651636027113e-01 5.054920728539297192e-01 0.000000000000000000e+00
2.364126948076383794e-01 3.875194944044901835e-01 0.000000000000000000e+00
4.526834287163794546e-01 2.914607195946193885e-01 6.117135835136614519e-01
7.264686292544078050e-01 2.866395309245619583e-01 0.000000000000000000e+00
3.239004927693958091e-01 4.078900593701946242e-01 0.000000000000000000e+00
4.934112654845685952e-01 7.794826474522054127e-02 1.957712460199136917e-01
5.023091732427041878e-01 5.210107586664450841e-01 0.000000000000000000e+00
1.709340753761464660e-01 4.822347810318668992e-01 0.000000000000000000e+00
-2.645936386254350570e-01 4.727081586998862495e-01 1.835554287708544008e-01
3.427474051867902549e-01 6.196270620164385790e-01 0.000000000000000000e+00
4.611282467886204106e-01 5.901685531618113822e-01 3.718358158769570210e-01
2.342886926543843451e-01 4.518170213802032986e-01 0.000000000000000000e+00
1.357555261121681234e-01 4.281007185080487609e-01 4.500561048522635499e-01
6.387154356527980914e-01 5.034454304206660291e-01 7.791182021992570927e-02
2.841156246899922966e-01 2.859941527020033458e-01 3.984520421337520713e-01
-2.013868205442350678e-01 2.841327145471670423e-01 0.000000000000000000e+00
2.631925842878852784e-01 3.631494967092578907e-01 1.655916805304034067e-01
9.665279493609602035e-01 5.460671859234011993e-01 0.000000000000000000e+00
3.191677216378314696e-01 3.608283905354769949e-01 5.744901584499116920e-01
6.902902372056218816e-01 6.324705978124314232e-01 0.000000000000000000e+00
-5.944422225359358158e-02 6.114803142467227781e-01 0.000000000000000000e+00
2.454350283925172960e-01 4.048205077654509765e-02 0.000000000000000000e+00
5.697965623827462300e-01 5.310502562172865204e-01 0.000000000000000000e+00
-1.002363654847808760e-01 5.314085058926047989e-01 0.000000000000000000e+00
2.968745671177159817e-01 5.300228299600998616e-01 1.863819002850042317e-01
2.341208343363755384e-01 4.766852140708870422e-01 0.000000000000000000e+00
8.943858935957259559e-01 6.988431785751880732e-01 0.000000000000000000e+00
6.111775400994786667e-01 6.372293375261532944e-01 0.000000000000000000e+00
6.533675805662657599e-01 -2.369595299292681645e-02 3.080370299254493460e-01
8.197934039182689370e-01 7.657257495978146977e-01 0.000000000000000000e+00
3.053032733829093015e-01 5.374571218019464913e-01 3.053413677490990352e-01
1.343532167929307741e-01 4.968357862479561016e-01 0.000000000000000000e+00
5.388421816775859075e-01 6.575838495201113965e-02 4.559305108739639678e-01
3.907859586640280991e-01 5.353098482076442677e-01 0.000000000000000000e+00
1.677488045861147414e-01 2.397578177215023976e-01 0.000000000000000000e+00
6.512754193791110424e-01 1.087226891712123056e-01 0.000000000000000000e+00
3.755095463496838093e-01 5.091450409457042303e-01 0.000000000000000000e+00
7.742772945431033449e-01 4.590920679914975988e-01 0.000000000000000000e+00
3.230383478827993926e-01 4.033042252616234613e-01 1.365442561225558293e-01
6.515140084549805310e-01 3.230031765724561410e-01 0.000000000000000000e+00
3.428751249840344961e-01 3.984605964158438596e-02 0.000000000000000000e+00
6.466469680539626008e-01 5.122505077443156862e-01 0.000000000000000000e+00
3.521140736456978004e-01 4.662289483606432139e-01 0.000000000000000000e+00
7.594104091026691039e-01 7.851598252129707856e-01 0.000000000000000000e+00
7.697776290359086282e-01 8.012731454719699276e-01 4.486117909052644848e-01
4.780334222973128266e-01 4.673453665386038125e-01 3.501516039650677259e-01
6.189549806004224219e-01 6.281317292635220095e-01 2.412775939702562766e-01
1.055311160212499599e+00 8.970685420035714452e-01 0.000000000000000000e+00
6.431174018392074032e-01 4.205267754121089219e-01 0.000000000000000000e+00
8.825495203781758002e-01 8.509987639083904654e-01 0.000000000000000000e+00
9.805244349586836883e-01 6.045251301644123387e-01 2.265206581161479660e-01
7.772716121462400762e-01 7.637342320896592929e-01 0.000000000000000000e+00
6.226599415374212132e-01 1.827533586402706467e-01 1.638713141929936112e-01
3.780155958758681933e-01 5.472865532399635580e-01 0.000000000000000000e+00
6.077076371806144905e-01 5.435295816976299932e-01 0.000000000000000000e+00
3.668307069988789859e-01 3.780560881355177205e-02 3.576257337998893782e-01
2.640559872051779777e-01 2.923452414774800889e-01 2.487805443829800289e-01
6.157167729763304287e-01 2.087442008172134544e-01 0.000000000000000000e+00
1.175894092989336892e-01 4.698641878885295720e-01 2.728708148926259902e-01
5.326463614248625467e-01 3.057016041882890667e-01 4.938174328844266991e-01
3.496658483178647359e-01 2.734773391385081354e-01 0.000000000000000000e+00
4.313714226007698826e-01 1.078822609665999188e-01 1.176396583409614616e-01
4.237219181784286359e-01 2.468823535328585894e-01 0.000000000000000000e+00
7.485297144161960903e-01 2.899142830426668649e-01 0.000000000000000000e+00
3.628692115590075318e-01 6.090681633123848915e-01 4.668099928026016032e-01
2.761943322638320542e-01 4.245001119726903305e-01 5.773209888798614964e-01
5.430590866203260925e-01 3.451890426197266049e-01 1.295233765751242494e-01
5.212258074274875863e-01 6.010117433665262965e-01 0.000000000000000000e+00
3.870429375839181674e-01 2.605996494563125321e-01 0.000000000000000000e+00
4.085263219891041020e-01 1.310496297529178955e-01 2.363017091487780164e-01
5.002612928802632197e-01 3.030485252229677684e-01 0.000000000000000000e+00
5.847759293729878349e-01 2.401879374914914766e-01 4.453912390516499009e-01
6.353606276310246326e-01 3.782985374501535158e-01 2.959179076035449718e-01
2.631268472745418308e-01 3.952042151093990707e-01 0.000000000000000000e+00
9.196476168377678562e-01 6.573990901115274177e-01 0.000000000000000000e+00
4.052297331096796906e-01 3.144916704659022066e-01 1.328852336551751279e-01
4.684839049066146233e-01 5.119427267737748366e-01 0.000000000000000000e+00
4.264363345596682286e-01 5.290300675266441655e-01 0.000000000000000000e+00
8.830442281744451671e-01 5.256979125320608848e-01 0.000000000000000000e+00
6.363760850069000163e-01 2.049054846528544083e-01 2.409692690589844144e-01
4.585364588884475179e-01 6.097267560162870081e-01 4.965507933073192159e-01
5.249357957242983819e-01 5.581126599637034058e-01 3.760205462739500959e-01
3.817073447001866349e-01 5.074688452754667622e-01 0.000000000000000000e+00
5.503705198215115280e-01 3.929763471648584083e-01 0.000000000000000000e+00
5.668318270429079098e-01 2.043298617327250488e-01 3.872367896846444779e-01
7.777314811627717983e-01 6.592907800300795707e-01 0.000000000000000000e+00
7.721711332581124854e-01 5.167455840215037233e-01 0.000000000000000000e+00
2.756625915192838505e-01 5.596523044346726206e-01 0.000000000000000000e+00
5.243187531581766647e-01 4.365697666958030521e-01 6.937762190956249242e-01
-3.845821121349124461e-02 6.673234405406663905e-01 5.811007836515820202e-01
7.579160917890856997e-01 7.345777300356350903e-01 0.000000000000000000e+00
3.798191742868806120e-01 1.009985188898077091e-01 1.541385848632601530e-01
-5.602041554648584665e-02 4.921540434937443642e-01 0.000000000000000000e+00
-9.148682953141462626e-02 5.397692008873714586e-01 2.973388508887233606e-01
1.076552339682366632e+00 8.550411628181366908e-01 0.000000000000000000e+00
1.017702539703113196e+00 8.385215912487995471e-01 0.000000000000000000e+00
5.144800362421189099e-01 3.708901767222715362e-01 0.000000000000000000e+00
2.961448745867287791e-01 5.948143529526775941e-01 3.339241211794894415e-01
4.345967347022927640e-01 4.686488380958653277e-01 2.932399921366684037e-01
4.377621459164068307e-01 5.067223100824935766e-01 2.593475665808433472e-01
9.097093827839005664e-01 8.517460019208821231e-01 0.000000000000000000e+00
2.344058337247674206e-01 5.048854213450649775e-01 0.000000000000000000e+00
1.626115205326077451e-01 1.878468399176145276e-01 5.099459048852539311e-01
4.459465128660273781e-01 5.831173364843432738e-01 0.000000000000000000e+00