POSCAR from GenerativeModels
1.0
2.000000000000000000e+01 0.000000000000000000e+00 0.000000000000000000e+00
0.000000000000000000e+00 2.000000000000000000e+01 0.000000000000000000e+00
0.000000000000000000e+00 0.000000000000000000e+00 2.000000000000000000e+01
Ag Al As At B Ba Be Br C Ca Cd Cl Co Cr Cs Cu Dy Er F Fe Fm Fr Ga Gd Ge H Hg Ho I In Ir K Kr La Li Md Mg Mn Mo N Na Nb Nd Ni No O Os P Pd Pr Pu Rb Rh Ru S Sb Sc Se Si Sm Sn Tb Tc Te Ti Tm U V W Xe Yb Zn
1 2 6 6 12 3 11 6 15 5 8 58 13 2 2 5 2 1 32 11 1 2 10 5 5 239 3 2 2 1 2 8 34 1 58 1 17 14 2 5 24 2 1 7 1 18 1 7 7 1 1 8 4 8 13 1 20 8 13 1 1 2 1 3 19 3 1 14 3 20 1 29
Direct
2.566348368072770558e-01 6.087753747481415845e-01 0.000000000000000000e+00
5.699657013040523301e-01 5.044315381921520292e-01 3.930680049713584090e-01
3.282561575736389070e-01 3.937366672289308589e-01 3.426020818613999541e-01
7.443240347563725434e-01 4.662899979312811194e-01 0.000000000000000000e+00
6.919349947571284964e-01 3.687505257548098214e-01 0.000000000000000000e+00
9.057807201662733121e-01 6.124241053982335536e-01 0.000000000000000000e+00
1.852146137678335469e-01 6.278374715504988490e-01 0.000000000000000000e+00
9.361203081216823430e-01 2.968668742976674491e-01 0.000000000000000000e+00
1.047940259597462065e+00 5.385346120568136330e-01 0.000000000000000000e+00
2.442078232898307055e-01 3.170545867163696574e-01 4.247403228028439059e-01
5.838505461022088783e-01 3.759577508003618673e-01 0.000000000000000000e+00
4.205574037203418936e-02 5.171529784451646128e-01 0.000000000000000000e+00
7.475926936440480119e-02 2.845329708933059809e-01 3.680984641489366549e-01
2.992098698800871315e-02 5.675379236267679151e-01 0.000000000000000000e+00
5.341752328254631976e-01 2.830716884326995864e-01 3.006245606701103412e-01
8.875152177528522479e-02 6.453552156450554911e-01 0.000000000000000000e+00
4.801508521472879210e-01 5.663120026577439514e-01 0.000000000000000000e+00
1.409077479690894474e-01 4.899167284449539306e-01 0.000000000000000000e+00
3.435536263635583509e-01 4.999620668249489253e-01 0.000000000000000000e+00
4.822713032831020818e-01 6.691171993732810686e-01 2.986158720502987141e-01
1.078869943551039601e-01 7.301691417740427958e-01 0.000000000000000000e+00
1.761757263513932248e-01 5.924879803532483447e-01 0.000000000000000000e+00
8.094729793744198654e-01 7.488892393647589296e-01 0.000000000000000000e+00
2.628634238548606117e-01 4.439735171454187723e-01 0.000000000000000000e+00
1.039683737686125431e+00 8.106957842682472881e-01 0.000000000000000000e+00
3.331985242368489253e-01 3.106590697421656166e-01 3.134932590056991319e-01
2.850239173870563469e-01 8.421819224010097527e-01 2.777350838465847405e-01
2.516355600271684700e-01 5.210130404889213862e-01 7.797579737124160637e-02
6.793876866677271975e-01 5.412600105352930457e-01 3.304706354064813612e-01
5.079746875613772028e-01 6.807896467933396423e-01 0.000000000000000000e+00
3.269146529278562641e-01 3.052285703426850239e-01 0.000000000000000000e+00
5.602343707265101669e-01 4.887582397846699234e-01 0.000000000000000000e+00
6.432613582281870857e-01 5.782066232665651340e-01 0.000000000000000000e+00
7.027420656695895218e-01 6.116631737041408057e-01 4.678088725564988337e-01
1.400272359084380192e-01 3.577542542545892879e-01 0.000000000000000000e+00
6.636839833544689871e-01 5.573928408112801547e-01 2.829396192873359084e-01
7.437318309701530517e-01 6.764316805009046307e-01 3.293006343029447613e-01
9.905689935588268824e-02 3.927725744763498339e-01 0.000000000000000000e+00
5.442834430508133314e-01 5.487426702666978739e-01 0.000000000000000000e+00
2.659737066252827464e-01 5.482255169695505748e-01 4.800056447673908266e-01
4.874063946349216359e-01 5.719318349901792997e-01 2.356534482311309908e-01
8.206083211711998615e-01 8.052932313701026690e-01 0.000000000000000000e+00
3.266047109103260571e-01 4.647191104998507072e-01 4.024108077770118808e-01
6.113491627060789746e-01 6.231185795171038100e-01 0.000000000000000000e+00
-2.209341367750541352e-01 3.114169714279894086e-01 0.000000000000000000e+00
4.530544815432322459e-01 7.438451293767669448e-01 0.000000000000000000e+00
4.862552157062411951e-01 5.253433803497598031e-01 0.000000000000000000e+00
3.532642182522771623e-01 4.318555752948685100e-01 0.000000000000000000e+00
8.374840480293456180e-01 7.860438860926031168e-01 0.000000000000000000e+00
1.593255737387266890e-01 3.059776441619512788e-01 0.000000000000000000e+00
2.450211717761530128e-01 1.835974821523779221e-01 3.821274415380524481e-01
9.119109153747558816e-01 0.000000000000000000e+00 0.000000000000000000e+00
8.852234145694540812e-01 7.806984921744781758e-01 0.000000000000000000e+00
8.988868705182332386e-01 8.504247698391692589e-01 0.000000000000000000e+00
6.805485796971633139e-02 4.587536828671675559e-01 0.000000000000000000e+00
5.790437609992880041e-01 4.198727594014863840e-01 0.000000000000000000e+00
1.649009316523365465e-01 4.852397398767110959e-01 0.000000000000000000e+00
3.657855750281506779e-01 4.872434603950102083e-01 0.000000000000000000e+00
2.701961118827429509e-01 6.468448854848556362e-01 0.000000000000000000e+00
4.630308686224600123e-01 5.291375909049238491e-01 0.000000000000000000e+00
7.161109595191578192e-01 6.681594608952177161e-01 3.744441230599085957e-01
6.172823422372160085e-01 3.251037156269676043e-01 0.000000000000000000e+00
-6.361223327648368731e-02 4.339974398332178129e-01 1.257832464212891299e-01
3.507364576024297742e-01 1.500130817183994436e-01 0.000000000000000000e+00
7.967007488183045494e-01 6.651307542688648100e-01 3.801327373071095028e-01
4.414041716649490521e-01 5.916946645352288980e-01 0.000000000000000000e+00
4.390058489290928900e-01 3.415137491886510723e-01 4.315553544298456057e-01
5.707472652866577567e-01 6.550247484026888722e-01 0.000000000000000000e+00
4.007250091460829999e-01 6.812297749133232605e-01 0.000000000000000000e+00
2.835815539697690291e-01 2.957011416116790414e-01 2.294417846397474037e-01
3.301439715777881867e-01 5.911975614238524912e-01 1.030182785434334836e-01
2.330821736070730621e-01 2.419814443561596473e-01 6.760696751156330953e-01
4.098776160463286633e-01 6.349960141561543647e-01 0.000000000000000000e+00
5.635744230697018464e-01 7.527007137421013461e-01 0.000000000000000000e+00
4.378412915722986742e-01 5.148183139819152432e-01 0.000000000000000000e+00
8.588298499487945215e-02 6.515501001736163644e-01 0.000000000000000000e+00
4.320346128020166043e-01 4.452707428860663841e-01 3.852127901573831892e-01
1.787240569850438998e-01 3.874457031290861053e-01 0.000000000000000000e+00
4.231893318014994243e-01 5.139081231490658652e-01 0.000000000000000000e+00
5.913290779283112419e-01 8.576283340271195765e-02 2.143612116787029231e-01
6.229951623118104020e-01 3.029487626272758805e-01 0.000000000000000000e+00
4.178285505236816189e-01 3.326310281956170734e-01 4.990057572137627240e-01
5.417643630599415783e-01 4.299162926602866364e-01 0.000000000000000000e+00
3.570570546960813996e-01 4.118761759732285643e-01 0.000000000000000000e+00
4.165683836416156360e-01 1.597981678889652812e-01 0.000000000000000000e+00
5.458970030801236772e-01 5.545115831762376102e-01 5.418494554499369009e-01
3.339455754604438997e-01 5.583692505009874019e-01 0.000000000000000000e+00
9.989890254095741273e-01 6.282856604734353700e-01 0.000000000000000000e+00
5.529922227155700254e-01 7.510269568998911849e-01 0.000000000000000000e+00
9.288965560029471824e-02 4.603832946413513039e-01 3.111925439988079134e-01
3.978170168299117737e-01 6.544784514814310228e-01 0.000000000000000000e+00
5.512076438989624849e-01 5.942794298705661449e-01 0.000000000000000000e+00
1.051722824330678208e+00 3.630261229724174310e-01 3.777707719022356248e-01
4.468507723844161728e-01 4.303320651516850948e-01 1.324913074964051418e-01
4.666641337734267481e-01 1.323200376235756925e-01 0.000000000000000000e+00
1.151979716664780939e+00 8.038404344124329137e-01 0.000000000000000000e+00
2.001079939799896845e-01 5.592313685760526010e-01 0.000000000000000000e+00
9.018785913173307245e-01 6.257434606314820069e-01 0.000000000000000000e+00
5.107586685119280823e-01 3.511218786615275533e-01 2.937088350546173121e-01
5.709719563170345680e-01 7.046364031989750254e-01 0.000000000000000000e+00
4.214857644067306897e-01 5.015541097274552884e-01 2.208908591335986271e-01
4.690140546217320683e-01 6.178843643450284695e-01 5.574492050689866529e-01
4.158941657515935475e-01 4.288540876546860225e-01 0.000000000000000000e+00
2.492494466176836676e-01 1.124561845218037259e-01 4.486065043662282870e-01
5.132118491172886765e-01 1.687466450784617100e-01 2.106273141970695928e-01
4.222647555809380115e-01 1.919159572106869938e-01 0.000000000000000000e+00
5.548526379315017465e-01 5.155328774196829000e-01 0.000000000000000000e+00
2.006501478376935266e-01 6.047061549082337617e-01 6.352362814312118022e-02
2.437411421283585122e-01 3.133881122516226636e-01 4.486166825953843418e-01
5.983184479163075054e-01 6.935658410298903842e-01 0.000000000000000000e+00
9.914834848467468653e-01 6.842566276368051703e-01 0.000000000000000000e+00
7.294143225844433864e-01 3.153478498115048767e-01 0.000000000000000000e+00
3.269181185941762990e-01 5.164336494547775436e-01 0.000000000000000000e+00
6.953945697217300825e-02 4.781467139548174483e-01 1.618557092010004528e-01
7.914445348888206055e-01 8.220857788148970835e-01 0.000000000000000000e+00
3.998630697516322163e-01 8.163933592313776799e-01 5.203879372002130355e-01
1.187823759783281918e-01 2.160364003451642478e-01 4.751189013160448393e-01
6.343930559765666999e-01 5.526567297505277088e-01 0.000000000000000000e+00
4.237178218964611220e-01 5.555191866178569304e-01 0.000000000000000000e+00
-4.589718968430567259e-02 4.763942938071321631e-01 0.000000000000000000e+00
6.702789966431239588e-01 3.154783576587790739e-01 1.781333096998637400e-01
6.435826227549529266e-01 4.910394099643937693e-01 0.000000000000000000e+00
3.776224562550067887e-01 5.801097899889885445e-01 0.000000000000000000e+00
4.617986984144850648e-01 2.557107354438016289e-01 0.000000000000000000e+00
3.411982110114949451e-01 1.371711376114721492e-01 0.000000000000000000e+00
3.096598483610331076e-01 4.935161889100558863e-01 0.000000000000000000e+00
3.158211803258574868e-01 5.755281447099892533e-01 0.000000000000000000e+00
3.729678934461597706e-01 5.362903751447684053e-01 2.182781131563360510e-01
7.790797271858205253e-01 2.129004640385783187e-01 3.526061266546538508e-01
-8.888432938130619299e-02 5.609740646205241266e-01 0.000000000000000000e+00
6.358929874602241572e-01 5.538953197430822595e-01 0.000000000000000000e+00
4.368657648118174919e-01 6.156866902400990327e-01 4.211319652139950964e-01
5.625699710095548589e-01 7.313672766530657787e-01 0.000000000000000000e+00
7.725483180558587737e-01 2.106417061195571261e-01 0.000000000000000000e+00
3.564535129628111365e-01 4.479653110563817098e-01 2.529675029341484915e-01
5.991160068123231319e-01 6.150464689880192903e-01 0.000000000000000000e+00
1.994200742654061997e-02 5.232263695021370786e-01 0.000000000000000000e+00
4.839294031848037081e-01 5.486008337456546036e-01 0.000000000000000000e+00
1.797758159021576319e-01 5.384129075507657625e-01 2.326363152155658254e-01
2.314500773904701880e-01 5.012136353260525645e-01 0.000000000000000000e+00
1.024791619493783168e+00 6.245374215094869896e-01 0.000000000000000000e+00
5.614855900701618552e-01 6.011245362596393527e-01 4.411448128758339582e-01
2.952229971015034593e-01 1.549399528350475785e-01 0.000000000000000000e+00
4.836447754703230295e-01 4.753325798203436037e-01 0.000000000000000000e+00
4.508225144083639613e-01 2.782655957787097956e-01 4.314362330341885432e-01
4.297799005458773358e-01 7.237393509473997177e-01 0.000000000000000000e+00
-4.580460133868613504e-02 9.668340776942863091e-02 2.905496957517850198e-01
1.005868238695140304e+00 8.286741347418424830e-01 0.000000000000000000e+00
8.315199047401855559e-01 4.429686718804864975e-01 0.000000000000000000e+00
1.348379372827958278e+00 8.258563295408493099e-01 0.000000000000000000e+00
1.098308347562003906e+00 6.130419984997753646e-01 0.000000000000000000e+00
2.413213509889230446e-01 2.820120084162075491e-01 7.170039282613209775e-01
5.734794387496817691e-01 5.420168829708479352e-01 0.000000000000000000e+00
3.873774018541960018e-01 5.057092705939914001e-01 5.150228685962233710e-01
4.564990484633271173e-01 4.463978726623688553e-01 0.000000000000000000e+00
3.963544980636559689e-01 1.296036124516519727e-02 3.792957724264838237e-01
9.083631216889879179e-01 5.410041287736008231e-01 0.000000000000000000e+00
2.285720339917777233e-01 4.783075637928712043e-01 0.000000000000000000e+00
3.172182816286153173e-01 1.551607790011387822e-01 5.947042476533371813e-01
3.039593217438738559e-01 2.920512005591286986e-01 0.000000000000000000e+00
6.743523095696469793e-01 2.532243449756601539e-01 3.114676058541643311e-01
-8.492365633650234003e-02 3.770530678919892242e-01 3.653844612943235592e-02
3.944132569424055879e-01 5.526524514877848571e-01 2.915834341818841491e-01
3.396319994980430135e-01 5.772459155943385767e-01 0.000000000000000000e+00
2.703976981849813832e-01 5.416973027495836090e-01 0.000000000000000000e+00
7.385934856894897926e-01 6.324431100957743634e-01 0.000000000000000000e+00
5.061123411597993060e-01 2.699753237942503770e-01 4.414987550220375034e-01
6.470912779062409914e-01 3.165446487815344323e-01 0.000000000000000000e+00
5.155200036106825090e-01 5.167403991301432464e-01 2.903171101119823572e-01
6.344623075759000530e-01 2.128607348067277361e-01 6.381736057797622319e-01
4.480136571810817703e-01 2.437085250746036102e-01 5.572030715840243786e-01
5.902918717189220565e-01 1.090384573201991225e-01 0.000000000000000000e+00
3.692402080942791542e-02 6.832115074456764914e-01 2.407747031962442774e-01
3.997119708533782845e-01 4.981037858223815729e-01 5.570998108515351488e-01
2.637956228060895914e-01 6.940799563353499124e-01 1.779018982553575157e-01
1.184915774171011682e+00 5.292884480645227985e-01 0.000000000000000000e+00
3.572663191582308162e-01 4.865454774283555217e-01 0.000000000000000000e+00
2.866789233322701858e-01 5.017660768537507421e-01 0.000000000000000000e+00
6.657393927219240615e-01 3.612628351745181821e-01 0.000000000000000000e+00
1.024283519108923235e+00 7.705502307376743687e-01 0.000000000000000000e+00
4.266365489243286735e-01 5.098062604312657564e-01 4.494390737042777140e-01
1.427937965212040305e+00 1.030698815235031374e+00 0.000000000000000000e+00
5.655950018977631277e-01 6.456707444054651246e-01 0.000000000000000000e+00
1.026649454489255708e-01 4.673348551925979866e-01 0.000000000000000000e+00
-1.846612044773277006e-02 5.941693892447190706e-01 3.462557708440452409e-01
-1.190976513205388443e-02 2.321845424874634523e-01 3.577306117757922399e-01
1.386839924441483074e-01 5.978880120005827248e-01 1.278146426919063439e-01
7.153729277433535927e-01 7.577725620320836519e-01 0.000000000000000000e+00
5.763171680461185442e-01 4.952688807647926961e-01 0.000000000000000000e+00
5.177287804223875689e-01 2.428805488307165250e-01 3.050876661771404486e-01
7.727463372657989993e-01 4.295521004783441343e-01 0.000000000000000000e+00
8.141945152958132148e-01 5.437528669776084955e-01 0.000000000000000000e+00
5.567109376587321412e-01 5.498819795607970962e-01 0.000000000000000000e+00
4.999825669004739348e-01 5.155941951763670650e-01 0.000000000000000000e+00
3.400187221804507054e-01 1.111942138320211937e+00 0.000000000000000000e+00
6.561079352635305062e-01 3.344341671931259086e-01 4.469019363448312188e-01
1.545037318102759905e-01 5.925794054359113661e-01 0.000000000000000000e+00
-1.112312806255655317e-01 4.503599645623068692e-01 2.416226150331652889e-01
9.321332303591939317e-01 2.923824708019346907e-01 2.993418432562841014e-01
8.748188500361533393e-01 4.636348461853951886e-01 0.000000000000000000e+00
3.916094739383930712e-01 5.402284331882861723e-01 0.000000000000000000e+00
6.876984286277276759e-01 6.623916388386901222e-01 3.051044811875781582e-01
5.136338638720250316e-01 5.837160451635416969e-01 0.000000000000000000e+00
2.757172153933884484e-01 4.111548475509561040e-01 0.000000000000000000e+00
2.923535475414856810e-01 3.855005862391706062e-01 0.000000000000000000e+00
2.702216818713922830e-01 5.828994141339535195e-01 1.829932145337417326e-01
4.484934232381189156e-01 3.655953845979551531e-01 4.273737838144100465e-01
3.892296436456403885e-01 5.158434714935221654e-01 0.000000000000000000e+00
5.436601088048423902e-01 3.853304362236604774e-01 0.000000000000000000e+00
3.750394343473496539e-01 2.136796471115945950e-01 0.000000000000000000e+00
1.685941223543041545e-01 3.694601818843130658e-01 0.000000000000000000e+00
4.225693027915169431e-01 8.252407137124996295e-01 0.000000000000000000e+00
6.782234472639538936e-01 5.653314384386077807e-01 3.738304720556636651e-01
3.090725533398657188e-01 1.778775873153006781e-01 0.000000000000000000e+00
5.039305205592599091e-01 4.619353660748314327e-01 0.000000000000000000e+00
3.506901965913205022e-01 7.034147213943164889e-02 0.000000000000000000e+00
-2.092074770059710875e-01 5.560134061306880593e-01 0.000000000000000000e+00
1.928948310903821906e-01 5.327508646020884253e-01 4.910449864776122997e-02
5.066048880671546462e-01 4.635629741090756539e-01 0.000000000000000000e+00
3.618491351956412139e-01 4.140711445156401993e-01 0.000000000000000000e+00
4.615864916888321456e-01 3.514750231508227962e-01 1.087020867420702697e-01
1.519253389100982954e-01 3.654711563583836753e-01 3.165340672702052771e-01
1.044504958828615715e+00 6.441396261914069665e-01 0.000000000000000000e+00
5.186906733046290352e-01 7.409952504636470039e-01 5.806795895621830184e-03
5.031093765666366791e-01 5.572075016455632079e-01 0.000000000000000000e+00
3.458091705379666703e-01 5.297078309512613936e-01 0.000000000000000000e+00
7.437178377152730002e-01 7.058492248297947302e-01 0.000000000000000000e+00
2.968141197889603289e-01 5.156951441498786037e-01 0.000000000000000000e+00
4.616536877452050991e-01 4.764771959818536740e-01 2.989638472792270907e-01
4.749656233741981204e-01 3.930629771523436178e-01 0.000000000000000000e+00
9.542192249025595041e-01 7.559563055284653776e-01 0.000000000000000000e+00
2.020151949069237673e-03 4.138017885962292919e-01 0.000000000000000000e+00
8.319396964287805174e-01 5.811362480223690730e-01 0.000000000000000000e+00
1.377887202576419945e-01 4.978133214926496741e-01 0.000000000000000000e+00
4.616005267903389164e-01 4.221001298265636414e-01 0.000000000000000000e+00
8.440159746026353327e-01 5.518644660872998875e-01 0.000000000000000000e+00
4.820982001057401156e-01 5.637102463304851652e-01 0.000000000000000000e+00
5.631142667034464422e-01 3.247392231495698223e-01 2.251966967377381224e-01
6.164230860328501205e-02 4.018241760512781813e-01 0.000000000000000000e+00
4.371816504434291595e-01 2.210621916318527003e-01 2.474969814479125452e-01
3.346554239852441714e-01 3.694177076972409157e-01 0.000000000000000000e+00
4.785711517955225647e-01 4.885289338678617810e-01 0.000000000000000000e+00
3.542621763757120013e-01 5.595367106079476294e-01 4.964576928916165643e-01
7.830273704950456715e-01 4.010927466185605361e-01 0.000000000000000000e+00
4.176282654302128083e-01 1.228740412349496047e-01 3.007524761075219821e-01
2.864424535750103029e-01 3.951359034072267074e-01 3.596349277530634936e-01
4.870308706181509795e-01 4.527879033189412539e-01 0.000000000000000000e+00
4.999956191979495479e-01 5.568742916295323919e-01 6.157850682211398752e-01
9.813139061470418367e-01 4.059263010532263571e-01 0.000000000000000000e+00
4.523335854352077412e-01 3.939103006990249956e-01 0.000000000000000000e+00
4.088989035750159040e-01 2.256082083209447475e-01 0.000000000000000000e+00
3.434161251346949939e-01 4.794718609599512016e-01 0.000000000000000000e+00
6.204289026902019000e-01 6.674538337350839345e-01 0.000000000000000000e+00
4.891781683067204511e-01 2.723049870016971408e-01 7.715176070740644709e-01
4.867651325783672878e-01 4.159983275623571064e-01 1.892993702374237142e-01
5.171458451870937223e-01 6.688668689369446918e-01 0.000000000000000000e+00
-3.568991174415270251e-02 3.292983505690519896e-01 1.083911759495606031e-01
8.726268715930154407e-01 5.858557221014393246e-02 3.910419552994226500e-01
8.974148166783143532e-01 5.326303334431939929e-01 0.000000000000000000e+00
8.333090124564068724e-02 4.998854450398029226e-01 3.912275781163665478e-01
5.158905476141447677e-01 3.717765862949546918e-01 0.000000000000000000e+00
6.367038319714594108e-01 5.136220667906572501e-01 3.647185237724623885e-01
3.182037961036103813e-01 1.690850628284283896e-01 3.363673502148998296e-01
4.701331337815621847e-01 5.840663612941887628e-02 0.000000000000000000e+00
4.747448486043782667e-01 3.862879021483073272e-01 5.838978491688816552e-01
5.372443821510775042e-01 3.708552643974696306e-01 1.773701661696532872e-01
2.457026965838501331e-01 5.472931210374887279e-01 0.000000000000000000e+00
2.541005615077760460e-01 8.132253370978759222e-02 4.800720424845410506e-01
5.793471033459548503e-01 3.172225139755686651e-01 0.000000000000000000e+00
2.218450025095763944e-01 2.687054939496904549e-01 0.000000000000000000e+00
5.708254718022958141e-01 7.018064015247889031e-01 0.000000000000000000e+00
7.772998710123236732e-01 8.008571031492621728e-01 0.000000000000000000e+00
2.279553977736206161e-01 2.822847219343268543e-01 5.364643943751595812e-01
5.226368360851280093e-01 6.578011165769771518e-01 0.000000000000000000e+00
3.794500984352870976e-01 4.388227291082080761e-01 2.837841185190016491e-01
6.977043858336555715e-01 6.226759310522951285e-01 0.000000000000000000e+00
3.088047993442597505e-01 4.757225770945746612e-01 0.000000000000000000e+00
2.358973673950838235e-01 4.688761045823267581e-01 0.000000000000000000e+00
5.395420243299151597e-01 5.775145791308604615e-01 0.000000000000000000e+00
1.042951882069970138e-01 2.734316632204443209e-01 2.183310891916268037e-01
5.195942669140832804e-01 3.573150345305622366e-01 2.343762729640395115e-01
3.192072622725363740e-01 3.383693713077795540e-01 0.000000000000000000e+00
1.672589161029328642e-01 5.069168623402895424e-01 0.000000000000000000e+00
8.542806077264825104e-01 6.535654743035870240e-01 0.000000000000000000e+00
4.787916174092385901e-01 3.681473112259674441e-01 0.000000000000000000e+00
6.263249830327568546e-01 5.395885246170630811e-01 5.971160938801856055e-01
5.862812989084080773e-01 4.050033834689636958e-01 5.815257668105093813e-01
-9.396326350660322291e-02 4.075992513618396096e-01 0.000000000000000000e+00
1.299683096579371533e-01 3.393755768977504417e-01 0.000000000000000000e+00
6.834900219880922778e-01 4.899950780233000014e-01 0.000000000000000000e+00
2.118967742151263156e-01 -7.085902204082517031e-02 0.000000000000000000e+00
9.522031679919775726e-01 7.230670682820529160e-01 0.000000000000000000e+00
8.617208335934511965e-01 4.037632630650194177e-01 1.574850778908596372e-01
2.191553472365274091e-01 3.281511380316406434e-01 2.555533778315701721e-01
2.371863428927866169e-01 6.293953378500348750e-01 5.557314987880760393e-01
3.083292180147694239e-01 5.433379877767158250e-01 0.000000000000000000e+00
4.389536663079717238e-01 5.664698066963614886e-01 0.000000000000000000e+00
6.704155193270685542e-01 6.690296944771403354e-01 0.000000000000000000e+00
1.252166459453381009e-01 4.870637270390212326e-01 5.243483013021528194e-01
2.698095147740904309e-01 4.552852014282345872e-01 5.566420469200802357e-01
5.928841405221132455e-01 5.799352701286845102e-01 0.000000000000000000e+00
2.730806967336019131e-01 5.318312193580456704e-01 0.000000000000000000e+00
1.259711142678259677e+00 5.575478349932104782e-01 0.000000000000000000e+00
8.886515440782626341e-01 6.326039364870059689e-01 0.000000000000000000e+00
6.047796859274046088e-01 6.142967262459255728e-01 0.000000000000000000e+00
5.746009994318396208e-01 1.778040243405036858e-01 1.957686169758294792e-01
2.371002232827826850e-01 3.016687790452543538e-01 0.000000000000000000e+00
4.567251156827094594e-01 6.844898075288272654e-01 1.468481528282783444e-01
4.348785104262382628e-01 2.338270488694401683e-01 0.000000000000000000e+00
4.323358893976461115e-01 6.356003411013770865e-01 0.000000000000000000e+00
2.687439565637660399e-01 4.553200069832685770e-01 0.000000000000000000e+00
4.572224445159938089e-01 5.608728605611176254e-01 0.000000000000000000e+00
4.786505047121087930e-01 3.302827290800426363e-01 4.925331781574691092e-01
2.335775928806822499e-01 7.159137294923308970e-01 0.000000000000000000e+00
9.459131706711716436e-01 4.179754494161429523e-01 2.673592332095013901e-01
1.532806049914718916e-01 3.744016948214970997e-01 0.000000000000000000e+00
7.140458554397173252e-01 5.698627834440438411e-01 6.896863239683548308e-02
4.054891813174745785e-01 3.942770952103821225e-01 0.000000000000000000e+00
7.619784189754796877e-01 5.697246576175974964e-01 0.000000000000000000e+00
3.945715642706321136e-01 8.885902232953357682e-02 4.020619309500188532e-01
6.429974031863805450e-01 5.654925123239292750e-01 0.000000000000000000e+00
7.418197910494539471e-02 4.521462418520028059e-01 0.000000000000000000e+00
6.456852807242685621e-01 5.516449670379119929e-01 1.361755032934399701e-01
8.768937902243305604e-01 3.403757204479727072e-01 0.000000000000000000e+00
5.672364664725371153e-01 6.893185610999360557e-01 0.000000000000000000e+00
5.621571494919943568e-01 3.585497979140049862e-01 2.844346346081259025e-01
2.899771598242599779e-01 6.169549652544117357e-01 1.395269965431229497e-01
1.802359244601630106e-01 4.406650126381650434e-01 0.000000000000000000e+00
-3.476992234641673729e-01 8.197850455368149714e-01 0.000000000000000000e+00
6.379850499827621757e-01 8.090709429237954442e-01 0.000000000000000000e+00
2.149943867700790934e-01 6.550662937829190291e-01 0.000000000000000000e+00
1.966749317742436665e-01 1.619202576240715841e-01 2.781658505018100858e-01
3.905739293996881578e-01 3.880945512511739803e-01 0.000000000000000000e+00
1.073735630988618350e+00 4.065729663892327927e-01 0.000000000000000000e+00
1.857088657511589691e-01 3.209093333017427607e-01 1.669991901531902023e-01
4.071425888157939044e-01 1.728619538288812540e-01 6.813371384638648998e-01
6.712515575767800113e-01 3.926013259667928690e-01 0.000000000000000000e+00
9.301313134331756771e-01 8.052090438977672626e-01 0.000000000000000000e+00
5.403440369106559116e-01 5.714038090820480198e-01 2.825652005145604662e-01
5.284696418686783970e-01 7.188604659955483145e-01 4.150884915194348324e-01
1.053269770194246835e+00 7.010585033946843403e-01 0.000000000000000000e+00
3.646519217761418075e-01 2.517359264085619053e-01 0.000000000000000000e+00
3.689867266502577792e-01 4.078589485988228791e-01 4.281547483829071243e-01
5.193583434231981988e-01 2.844468761494622910e-01 2.746679017350769358e-01
4.128009405403487708e-01 4.724192181661780454e-01 0.000000000000000000e+00
6.879520618079437710e-01 5.428553889529914578e-01 0.000000000000000000e+00
2.027744729114266953e-01 2.305290530562940088e-01 0.000000000000000000e+00
7.165616524997497905e-01 5.394171393147654259e-01 0.000000000000000000e+00
8.728255733888181656e-01 4.227024326839134982e-01 0.000000000000000000e+00
4.219352884233853462e-01 2.839409228889854253e-01 5.427695317531563424e-01
4.792212653843961334e-01 3.876102568030554973e-01 0.000000000000000000e+00
4.405523020119149757e-01 2.687245960421401625e-01 2.519036016133410216e-01
3.748910863804518767e-01 3.467234166832477982e-01 0.000000000000000000e+00
5.178122009523723479e-01 4.883141811651081632e-01 0.000000000000000000e+00
2.034072989191290093e-01 2.989229905234773721e-01 3.521031382958275113e-01
4.098855002499687261e-01 5.981078675247066823e-01 3.185566532621275648e-01
4.893888658962710636e-01 7.038204690482264825e-01 4.030178901338588027e-01
2.627744839251551223e-01 3.841123111959727776e-01 0.000000000000000000e+00
5.716115171169207088e-01 5.633129829286630530e-01 0.000000000000000000e+00
2.380227363104243654e-01 3.150789620752020292e-01 6.174964645659454243e-01
5.194209606910847876e-01 5.699304780729984587e-01 0.000000000000000000e+00
3.611891327360661208e-01 4.520091806136996571e-01 0.000000000000000000e+00
6.788592601553484762e-01 6.417815510966350390e-01 4.732436228286529545e-01
8.553948946491406469e-01 4.110451494303166697e-01 0.000000000000000000e+00
5.643266988502054771e-01 3.803538861470512344e-02 0.000000000000000000e+00
6.311585214418095058e-01 6.423760756367034030e-01 0.000000000000000000e+00
5.930728179881491480e-01 4.178951419517313859e-01 1.337689690073604609e-01
6.094526969808512495e-01 4.683870872743761682e-01 6.663801121078908318e-01
5.102107166035094732e-01 5.505059171549183672e-01 0.000000000000000000e+00
5.558605616454647125e-01 4.601416594483247469e-01 0.000000000000000000e+00
6.519300739922190280e-01 2.510556584436371974e-01 5.564960390501914045e-01
-9.990605783910178062e-02 5.571376362450963793e-01 0.000000000000000000e+00
3.847252098536724230e-01 3.600995169847005517e-01 2.050371909141464055e-01
9.586636446824908786e-01 6.321517800191182035e-01 0.000000000000000000e+00
2.325081175106122888e-01 5.467900828449976380e-01 0.000000000000000000e+00
6.642660470461871913e-01 3.812362219260088114e-01 0.000000000000000000e+00
1.006404007629042585e-01 7.450920058746772767e-01 0.000000000000000000e+00
2.336985541200057304e-01 5.221881521397677695e-01 0.000000000000000000e+00
3.460032147579839013e-01 4.182307951758428288e-01 0.000000000000000000e+00
4.770718984932373896e-01 6.201422374929519421e-01 0.000000000000000000e+00
5.628568659972290611e-01 3.321371364138052673e-01 0.000000000000000000e+00
2.780252484136394031e-01 1.826083468324313230e-01 0.000000000000000000e+00
5.847157134272655821e-01 5.732074613902334859e-01 0.000000000000000000e+00
6.673031962394179173e-01 5.549162100652068608e-01 0.000000000000000000e+00
8.012760905594019656e-01 6.490726587509086931e-01 0.000000000000000000e+00
4.418687446738975844e-01 4.036879124144645559e-01 0.000000000000000000e+00
2.272979669812483783e-01 3.521961323103077746e-01 4.420846555134183564e-01
7.893804729441824541e-01 6.160322734507789333e-01 0.000000000000000000e+00
6.184518789392967619e-01 5.514831714520819217e-01 0.000000000000000000e+00
6.416735889396076864e-01 4.622407534924184436e-01 0.000000000000000000e+00
6.987243714660645866e-01 4.075749207486760728e-01 3.102272754327943804e-01