POSCAR from GenerativeModels
1.0
2.000000000000000000e+01 0.000000000000000000e+00 0.000000000000000000e+00
0.000000000000000000e+00 2.000000000000000000e+01 0.000000000000000000e+00
0.000000000000000000e+00 0.000000000000000000e+00 2.000000000000000000e+01
Ag Al As B Be Br C Ca Cd Cl Co Cr Cs Cu Eu F Fe Ga Ge H Ho In K Kr Li Mg Mn Mo N Na Nb Ni No O P Pa Pd Pm Rb Rh Ru S Sb Sc Se Si Sm Sn Sr Ta Te Ti V Xe Y Zn Zr
1 5 6 8 8 5 16 12 5 20 8 4 1 7 1 12 3 7 8 113 1 3 5 8 10 13 8 4 9 10 2 5 1 23 6 1 1 3 3 1 1 20 1 11 11 17 1 1 4 1 1 11 8 1 1 7 2
Direct
6.248051370644618352e-01 4.521987920235078784e-01 0.000000000000000000e+00
4.903747907012718787e-01 6.046758414102919588e-01 0.000000000000000000e+00
7.012880850258347287e-01 5.722170884309741856e-01 0.000000000000000000e+00
3.473263386991247703e-01 3.175614217556907981e-01 1.309175730274392269e-01
1.673794529051876312e-01 4.391045037727365763e-01 0.000000000000000000e+00
8.021987817953871724e-01 3.376389351853597010e-01 0.000000000000000000e+00
1.522789888214145515e-01 3.855501887138398365e-01 0.000000000000000000e+00
5.574526967621689089e-01 3.337862923714915997e-01 4.171990787015986690e-01
7.940105476822655328e-01 6.255242471578388308e-01 4.267382504489116712e-01
-2.975329733044307368e-02 6.095787103136253160e-01 0.000000000000000000e+00
7.396367143837788705e-01 5.312795653996683631e-01 0.000000000000000000e+00
4.234949394882625562e-01 4.601538860922920193e-01 0.000000000000000000e+00
4.642606590724378535e-01 3.265561912940557754e-01 1.149844500432013472e-01
3.541749968140026628e-01 6.158279224502292148e-01 5.480594193411011394e-01
6.193674332679834915e-01 1.920749959066746504e-01 4.188807516762644845e-01
1.138612780395050761e+00 7.308535264901497852e-01 0.000000000000000000e+00
6.301109400642099789e-01 5.392762227698345567e-01 3.013420503505781500e-01
5.140267186762477181e-01 4.450047690449541182e-01 0.000000000000000000e+00
5.134650729731585761e-01 3.739016272108550698e-01 0.000000000000000000e+00
1.185518108595435827e+00 4.746685342903855798e-01 1.772772460613392109e-01
3.172546988456264039e-01 4.214041052890442618e-01 2.351047469664511169e-01
6.349512599084889963e-01 7.856337950264854486e-01 0.000000000000000000e+00
3.623753767486288524e-01 2.653749856419960196e-01 4.947547313634523825e-01
0.000000000000000000e+00 0.000000000000000000e+00 0.000000000000000000e+00
4.386006915632623127e-01 3.582103103485096973e-01 4.171099471435320005e-01
1.442022854587208247e-01 4.112230962097038756e-01 2.266593496780681116e-01
5.595995049942373845e-01 3.054238398513934305e-01 0.000000000000000000e+00
3.994909681624360109e-01 5.466876847075932133e-01 4.858575172035314305e-01
5.731897233362314159e-01 3.729434976696455184e-01 0.000000000000000000e+00
5.905035258081412497e-01 3.345688944272289245e-01 0.000000000000000000e+00
1.991651446656174107e-01 6.764922305675367120e-01 7.807474671147252021e-02
6.034779308236388751e-01 1.119304078266059044e-01 0.000000000000000000e+00
2.475299143091005405e-01 5.746375053772866393e-01 0.000000000000000000e+00
6.127162615657536504e-01 4.981455920316952835e-01 5.083814809475226681e-01
8.558553302571937360e-01 4.154593882343348143e-01 0.000000000000000000e+00
3.920577456677296624e-01 2.929059646782712356e-01 0.000000000000000000e+00
3.230193511940777640e-01 1.140495469593002520e-01 2.395913349893834532e-01
1.043368716160972820e-01 3.619919701760818675e-01 4.466839841815994916e-01
6.950849327317655257e-01 3.399699870865755535e-01 0.000000000000000000e+00
5.566361667404049474e-01 6.429147850638146089e-01 0.000000000000000000e+00
5.563763226127526051e-01 4.541958178327278883e-01 0.000000000000000000e+00
8.562480593585588551e-01 7.232643791831825375e-01 0.000000000000000000e+00
1.218411300766146788e-01 1.849246032344875612e-01 1.097312045002509784e-01
8.238936562968200983e-01 6.968963676420073527e-01 0.000000000000000000e+00
6.353090585130889423e-01 5.130908401084883774e-01 0.000000000000000000e+00
3.364411575332300064e-01 5.316961124278525297e-01 0.000000000000000000e+00
5.363248064328480780e-01 3.194283047041672763e-01 1.429507680099609823e-01
5.969471206615403203e-01 3.211499098069678926e-01 0.000000000000000000e+00
1.517925780824269655e-02 5.266553170678940354e-01 0.000000000000000000e+00
3.123558444284686431e-01 5.601224541339527851e-01 3.735843661732443088e-01
9.952865721334955840e-01 1.208183703445018242e-01 1.412584923826113448e-01
2.839932156256448348e-01 2.628946559057998567e-01 0.000000000000000000e+00
4.340451266196529989e-01 4.090599650272994658e-01 0.000000000000000000e+00
5.178159019868854296e-01 1.762032704651115278e-01 0.000000000000000000e+00
8.698794479807289148e-01 6.206898871499851866e-01 0.000000000000000000e+00
8.510806708562690392e-02 3.178127788769464779e-01 3.547831196519481978e-01
3.180863796912403174e-03 4.436716986696738196e-01 4.258057710463785117e-01
5.529127532503105291e-01 4.218372752506929224e-01 0.000000000000000000e+00
2.294070728802024561e-01 6.921493203342402589e-01 3.270289089062339283e-01
2.239129668197659129e-01 4.592843100601922135e-01 0.000000000000000000e+00
5.578191724055580059e-01 3.531483118813705246e-01 0.000000000000000000e+00
3.540156645370482469e-01 1.508211046767593544e-02 0.000000000000000000e+00
8.777915268408982286e-01 6.322816729136961911e-01 3.974017966262241019e-01
3.299633419544028001e-01 -5.176700883086526872e-03 5.049306941316971109e-01
5.565757640487832836e-01 2.670851346541183169e-01 3.266738649869522781e-01
2.349273826573534674e-01 6.570925178396100907e-01 0.000000000000000000e+00
7.585342395478447131e-01 7.843672198729598755e-01 0.000000000000000000e+00
6.756180051786543350e-01 4.894782970645460418e-01 0.000000000000000000e+00
5.780773096682521039e-01 1.151179586318684667e-01 3.780182156029341378e-01
5.295400976398607629e-01 5.351143123689956482e-01 3.962661063551471408e-01
5.207985768478817779e-02 4.412144829739446106e-01 0.000000000000000000e+00
3.288445104509762906e-01 4.296681529442134551e-01 0.000000000000000000e+00
4.621358888150666200e-01 2.870884541747508178e-01 0.000000000000000000e+00
4.593745384293204115e-01 2.609644557514156915e-01 0.000000000000000000e+00
5.728904973714427085e-01 3.287912749678341129e-01 0.000000000000000000e+00
4.041401708213296917e-01 5.304108343063886899e-01 0.000000000000000000e+00
1.395412219612783833e-01 7.572628552157819604e-01 0.000000000000000000e+00
5.175307926209037346e-01 5.829811198089784874e-01 0.000000000000000000e+00
8.246127613892642039e-01 5.174094548216421341e-01 3.787184578576763272e-01
5.641934237759224091e-01 7.068231749375909478e-01 0.000000000000000000e+00
4.057328908403701195e-01 6.047963651729317824e-01 0.000000000000000000e+00
2.672159522693948741e-01 5.646852610155169705e-01 0.000000000000000000e+00
4.891199705874160752e-01 4.696053074390241777e-01 0.000000000000000000e+00
2.933207871167768932e-01 4.353768412205198945e-01 0.000000000000000000e+00
7.641677094935491743e-01 4.479723304644697146e-01 6.902087820969083909e-01
5.429008278975375745e-01 1.434140453937724491e-01 0.000000000000000000e+00
7.054919357594205964e-01 5.652652480480918618e-01 0.000000000000000000e+00
7.955729739528754063e-01 6.937494980049667692e-01 1.065957046567378441e-01
5.774930047002687639e-01 6.725609277902111494e-02 0.000000000000000000e+00
3.500209942500218663e-01 3.786227230839556146e-02 8.542880937977154199e-01
3.154984695260406591e-01 5.030485606722657765e-01 0.000000000000000000e+00
5.143429798069841796e-01 7.642194666115373902e-01 3.363938399963970483e-01
7.650163420826046057e-01 3.073594611833088130e-01 0.000000000000000000e+00
4.049229524591926310e-01 5.735387300309041647e-01 0.000000000000000000e+00
9.824799845795939568e-02 6.574303793264207885e-01 0.000000000000000000e+00
3.480954222820318300e-01 2.601182343478928294e-01 0.000000000000000000e+00
4.258850121888813067e-01 4.489749369359526954e-01 4.057143929755981926e-01
4.982983436161807500e-01 3.109491255063183690e-01 2.393243408472160993e-01
2.721654205133756665e-01 4.253956300492360842e-01 3.067385148175689746e-01
2.970864089274336539e-01 4.827938854968467641e-01 0.000000000000000000e+00
2.690284138489418275e-01 7.250155565155698145e-01 9.424913223713482502e-02
4.291150055583377032e-01 3.621068093522015197e-01 3.667325292463683439e-01
4.441393569611641334e-01 4.155852997906023250e-01 0.000000000000000000e+00
3.415558004438090656e-01 4.876550704858597651e-01 3.745490795646116977e-01
8.212247515995946268e-01 4.172727604955321912e-01 0.000000000000000000e+00
6.179936613611710650e-01 3.562196309858123300e-01 2.233413299714698264e-01
7.863214862245162529e-01 3.798957110194198794e-01 0.000000000000000000e+00
3.269467152345053584e-01 4.493501214188730941e-01 0.000000000000000000e+00
5.918622372115188712e-01 4.581946514914571056e-01 4.608270104299109216e-01
6.410367998418159408e-01 5.572984882448246413e-01 2.527314635836380718e-01
3.856801656005363066e-01 6.382092476900863565e-01 0.000000000000000000e+00
2.698518023501349505e-01 1.304007859539901837e-02 5.457362229060879200e-01
4.703545897562363409e-01 4.478810139623186082e-01 3.889450468760642377e-01
5.052433070425771389e-01 3.311971524571584169e-01 0.000000000000000000e+00
4.765036977115612027e-01 3.200927047830609551e-01 0.000000000000000000e+00
4.686118760259092575e-01 3.750292695218129246e-01 5.236265027847777365e-01
4.863090467715853737e-01 5.637722446704177548e-01 0.000000000000000000e+00
1.671668650532336375e-01 6.618953447570059545e-01 0.000000000000000000e+00
6.600073351567257163e-01 6.360499325425895689e-01 0.000000000000000000e+00
3.671203261246731575e-01 5.304547226397618997e-01 0.000000000000000000e+00
1.107590018549950761e+00 7.522736643510504750e-01 0.000000000000000000e+00
2.828376445714595455e-01 3.235996752892004169e-01 9.144191875627305510e-02
4.837689197663972429e-01 5.012772156436070548e-01 0.000000000000000000e+00
5.735824585776970741e-01 7.424188455796798536e-02 0.000000000000000000e+00
5.699531573331751977e-01 5.702848669505857782e-01 0.000000000000000000e+00
3.693534997713667778e-01 3.978161043172263600e-01 0.000000000000000000e+00
9.033809490139712572e-01 7.281175125688122973e-01 0.000000000000000000e+00
3.184593838404545796e-01 5.708365181545078659e-01 0.000000000000000000e+00
1.472275939910077103e-01 4.431395384792065073e-01 4.514040685461513380e-01
4.463412424081207863e-01 6.072425304879467411e-01 2.118388202261407560e-01
6.696936578574830268e-01 5.675025170026986032e-01 0.000000000000000000e+00
4.730661919061043275e-01 3.337105886764053508e-01 5.607562399107294260e-01
5.834983821942526516e-01 5.722397578210375313e-01 0.000000000000000000e+00
6.232336250971292069e-01 6.367146969503272302e-01 5.505253522486553974e-01
2.070682655767082103e-01 7.300709926861324028e-01 3.020359887536657739e-01
2.638084655099606213e-01 4.132474433333772623e-01 0.000000000000000000e+00
4.245588599780796280e-01 1.116684855703277801e+00 0.000000000000000000e+00
8.327153753204312725e-01 4.628588294881896825e-01 2.069777187173358346e-01
6.186897824153201331e-01 6.197687093866229846e-01 0.000000000000000000e+00
9.142179807045272000e-01 5.988982628317572887e-01 0.000000000000000000e+00
2.806655255294451257e-01 4.791537383521051741e-01 0.000000000000000000e+00
6.753961840246289761e-01 5.957848044223954531e-01 0.000000000000000000e+00
5.777274918586785546e-01 5.252576713109913253e-01 0.000000000000000000e+00
9.108394057491345785e-01 6.582403668513894246e-01 0.000000000000000000e+00
2.502081815170864587e-01 4.868735111234570034e-01 0.000000000000000000e+00
6.723781075357588843e-01 6.614716554537634075e-01 0.000000000000000000e+00
6.125311127366459552e-01 -2.846166048339782151e-02 1.705035535231634869e-01
-3.553319784658182101e-02 5.539584950213124470e-01 0.000000000000000000e+00
2.979507807266390529e-01 4.284948852475078951e-01 0.000000000000000000e+00
1.659886761007856038e-01 8.635880621593139406e-02 2.377077424369069547e-01
4.360623466774300461e-01 7.156453501805914996e-01 0.000000000000000000e+00
9.037111990779078674e-02 4.788767829484872340e-01 0.000000000000000000e+00
3.356874199164907591e-01 5.062402418015321537e-01 0.000000000000000000e+00
4.573921276626811139e-01 3.851911850564949669e-01 0.000000000000000000e+00
4.177663926407975126e-01 5.200890323020447292e-01 0.000000000000000000e+00
5.132931820603510165e-01 4.805741660967433049e-01 2.687548780820085970e-01
7.457341744600500810e-01 2.498826516507730577e-01 0.000000000000000000e+00
7.915139549996953461e-01 6.363195259479237365e-01 3.311407411116853439e-01
4.582455544883534682e-02 6.243891293884251681e-01 3.304144318872000996e-01
4.926927223097288255e-01 3.862125489407548518e-01 0.000000000000000000e+00
2.042144999916911674e-01 6.142347704721490276e-01 0.000000000000000000e+00
5.227678234632454624e-01 5.010704222719589707e-01 0.000000000000000000e+00
3.353864452703282373e-01 6.468503649001772215e-01 0.000000000000000000e+00
6.399923678492362988e-01 3.910429975656637414e-01 4.774304354264677919e-01
7.155244926308995668e-01 4.324120490696672370e-01 3.001247810124072490e-01
1.255090167121740707e-01 4.472502350933911242e-01 5.689491909907343770e-01
4.789443903952271819e-01 1.839430192433368916e-01 2.634376956254831370e-01
7.474149766870584743e-01 5.070662356855425434e-01 0.000000000000000000e+00
4.001664610475752504e-01 4.573738437565690873e-01 0.000000000000000000e+00
5.168145731733444492e-01 2.865845013289417542e-01 0.000000000000000000e+00
7.466605939410909665e-01 3.914762300112830662e-01 0.000000000000000000e+00
7.631954427454357148e-02 3.617363520864187443e-01 3.598879964391996644e-01
5.746592465321036514e-01 -3.803927506448578910e-02 1.710761278842256594e-01
4.869506854355791781e-01 6.042142336184473939e-01 5.193956555740164571e-02
9.483432156969799909e-01 6.224427756555946933e-01 0.000000000000000000e+00
5.056434792651587351e-01 4.397263859863396185e-01 0.000000000000000000e+00
7.945504461149075492e-01 3.458340799454320269e-01 6.676757846257443951e-01
5.482984504712477003e-01 8.642551171940149324e-01 0.000000000000000000e+00
4.702796218761993163e-01 4.411529320152607347e-01 0.000000000000000000e+00
4.449331034614030234e-01 1.520774472900265906e-01 2.382733931947654815e-01
4.813100074069964762e-02 8.133589755618250150e-01 0.000000000000000000e+00
5.206418591753089187e-01 3.828814701110044849e-01 0.000000000000000000e+00
3.732733719535588079e-01 7.487044593733725995e-01 0.000000000000000000e+00
5.416443980448123474e-01 5.695119828852623911e-01 3.229823107106928326e-01
4.272474714339886681e-01 1.552489948704033340e-01 0.000000000000000000e+00
4.946603989922497835e-01 4.030839293905223997e-01 6.287465149283718580e-01
4.019297390767062605e-01 1.879833391405049126e-01 0.000000000000000000e+00
6.519369485547001908e-01 5.625854053813148514e-01 0.000000000000000000e+00
-1.663249173729597352e-01 6.083618416639666737e-01 0.000000000000000000e+00
7.891024948441066611e-01 3.212428931369690766e-01 4.221377381680524454e-01
6.052158249867316542e-01 5.146125352726410584e-01 0.000000000000000000e+00
4.623215398194293613e-01 -2.677655430855585550e-02 0.000000000000000000e+00
-1.463071782919689312e-02 6.855209229633651979e-01 0.000000000000000000e+00
8.714491288053052287e-01 5.046222979186957280e-01 0.000000000000000000e+00
9.002781659453551466e-02 2.785195142146799085e-01 1.647968936280204133e-01
3.449500727588179494e-01 2.979741177551817888e-01 4.857485582311273919e-01
6.044958702611687995e-01 5.211175423881080349e-01 7.003820930183830562e-01
3.377012003379780136e-01 5.038748336633930291e-01 4.705873287907917923e-01
5.274023484125973660e-01 6.817262459994474222e-01 2.177789301257730958e-01
9.869816738542085410e-01 5.709091746296038883e-01 0.000000000000000000e+00
4.169226164013188907e-01 3.027138690138960753e-01 0.000000000000000000e+00
3.139272092215590337e-01 4.388159773918687279e-01 4.987203619991265047e-01
4.682989894196600833e-01 2.392578732152819132e-01 0.000000000000000000e+00
3.378948754148514144e-01 4.030887523928163851e-01 0.000000000000000000e+00
2.289671116884521851e-01 4.120624970656605601e-01 0.000000000000000000e+00
9.691342407679917059e-01 4.697637590071073177e-01 0.000000000000000000e+00
4.962971064204766414e-01 3.568422394506407525e-01 5.795903453362772906e-01
4.487025705592746494e-01 5.524081935633152751e-01 1.302562977520100862e-01
3.058650272993976849e-01 3.739763633245503094e-01 0.000000000000000000e+00
3.760463739351823653e-01 4.327359730454469755e-01 3.291998273680023512e-01
8.217100703169191167e-01 6.089437679669317260e-01 0.000000000000000000e+00
5.681286746283417122e-01 2.532223044907662146e-01 0.000000000000000000e+00
5.363877486065818934e-01 -2.695140743790336302e-02 0.000000000000000000e+00
7.066598219865407593e-01 4.875947990438083135e-01 0.000000000000000000e+00
4.292768536002617985e-01 1.798313672000069197e-01 0.000000000000000000e+00
2.985315514009601046e-01 2.516879533872956598e-01 1.728034854598824444e-01
6.164787047456908864e-01 4.859200440491466821e-01 0.000000000000000000e+00
2.714605416566683305e-01 3.827319640883301011e-01 1.041627682674575173e-01
6.524536172368256004e-01 7.483410989237193611e-01 0.000000000000000000e+00
6.514847397915014549e-01 6.766850187836842556e-01 0.000000000000000000e+00
8.316404993902303255e-01 3.465575035065984189e-01 5.700775955877712686e-02
4.867038550095941218e-01 2.272600546409314637e-01 8.016872764253726302e-01
-1.735822362211276726e-01 9.048634399916836157e-01 0.000000000000000000e+00
1.402401689681246344e-01 5.520234783729092154e-01 0.000000000000000000e+00
5.327120846650877928e-01 3.088340459963599960e-01 0.000000000000000000e+00
9.328032469510350033e-01 5.640673191247337348e-01 4.511218992950105644e-01
1.131291932291963453e+00 6.266213091740669983e-01 0.000000000000000000e+00
4.399810321685724279e-01 4.337062915759575255e-01 0.000000000000000000e+00
6.078833867388487855e-01 7.890833522492631813e-01 0.000000000000000000e+00
4.283083710240964681e-01 3.034620636444758102e-01 0.000000000000000000e+00
6.411499745020430296e-01 4.929034436452452983e-01 0.000000000000000000e+00
6.717658269154905826e-01 1.990349725851983109e-01 5.174317942975553697e-01
4.909989857136329849e-01 3.012180180048522615e-01 4.276569366817977169e-01
2.533974067036222078e-01 6.301246053307769657e-01 0.000000000000000000e+00
6.969259042620721267e-01 6.053069151472758591e-01 0.000000000000000000e+00
7.191402784847531482e-01 6.943603741333577162e-01 0.000000000000000000e+00
2.283466966812093268e-01 3.576665314899971637e-01 6.361331579750959531e-01
4.652888706420235110e-01 2.048370357053629354e-01 3.709987802666607770e-01
2.357172821318931355e-02 3.835608797911276291e-01 0.000000000000000000e+00
5.547558047408535087e-01 6.204912850147176195e-01 0.000000000000000000e+00
1.207864510347238518e-01 1.843492128099216698e-01 2.208571460929379393e-01
1.420090621920647500e+00 7.822769099225299616e-01 0.000000000000000000e+00
4.836074219623467396e-01 5.203299511902018670e-01 0.000000000000000000e+00
4.310555748216506888e-01 3.579934901519775670e-01 2.929229620830378078e-01
4.847136325450179806e-01 2.175206896879072760e-01 2.626313666748111286e-01
4.318205570419122452e-01 4.626145740547575880e-01 1.647566744936672656e-01
2.009959268193981519e-01 2.599594383434922218e-01 4.050608209216500777e-01
7.147090977052599214e-01 -6.947738921301982451e-02 6.201902080970782549e-01
5.638667213796287880e-01 8.069104999770865261e-01 0.000000000000000000e+00
6.175739472123070728e-01 5.876383336946860991e-01 0.000000000000000000e+00
2.795016481971950295e-01 4.962300749084480600e-01 1.453684160240920065e-01
4.018227467699384547e-01 6.591588729794198853e-01 0.000000000000000000e+00
3.281294739711347885e-01 6.136981514526974602e-01 0.000000000000000000e+00
-2.161446497988579463e-01 2.471271767297560373e-01 0.000000000000000000e+00
5.466367923129688000e-01 5.950843828470450125e-01 0.000000000000000000e+00
5.522044818488444085e-01 6.731056286421353008e-01 2.056381348556812760e-01
8.229253496388946321e-01 6.287969931230177334e-01 2.236828109883247651e-01
8.547893101833091700e-01 5.302804484829640730e-01 0.000000000000000000e+00
1.092687195767253261e+00 3.527824918839659318e-01 5.281440129149300722e-01
3.501657076746365060e-01 2.131624347426397392e-01 0.000000000000000000e+00
8.785487892379733044e-01 7.358015143470687525e-01 0.000000000000000000e+00
4.547412095796143916e-01 3.335060703306744756e-01 0.000000000000000000e+00
3.808026972261169263e-01 3.400331303318028242e-01 0.000000000000000000e+00
6.769243209799310490e-01 6.573244682311013554e-01 0.000000000000000000e+00
9.259312267705732680e-01 5.781692216781919580e-01 2.887527720666556164e-01
8.122673068474756120e-01 7.372832207629763657e-01 1.687665853187771958e-01
6.287733634295522567e-01 4.599187984326342793e-01 0.000000000000000000e+00
5.359485744167056254e-01 3.492305572957730142e-01 0.000000000000000000e+00
2.539418482896953488e-01 4.856028664564916442e-01 4.734459757179516615e-01
6.256230187211787586e-01 2.886591570631177328e-01 3.229289314322993931e-01
8.620423858015590080e-01 6.138742956875437029e-01 3.791397761734958127e-01
7.658282575262274072e-01 4.906522866709601693e-01 3.090378178968278267e-01
7.013552242081082522e-01 -3.005196174405369014e-01 0.000000000000000000e+00
7.067835303306428951e-01 -2.594214907628034084e-02 3.123322053142776333e-01
1.544866950141140505e-01 5.337946622884719439e-01 7.033780170766191775e-01
6.603168196819151348e-01 4.923047972584393417e-01 4.788125057045145017e-01
4.287188143788411843e-01 4.291451242203232486e-01 3.341289674561596090e-01
2.161267502840314991e-01 3.679897085079962826e-01 1.426760380294006536e-01
6.927698432910720516e-01 3.087657681750373140e-01 1.032149903408720037e-01
2.381652867630760229e-01 -1.520978690561807234e-01 2.559630021593888305e-01
4.779666042323205133e-02 3.770210480990595636e-01 0.000000000000000000e+00
3.364114690121611240e-01 4.431406766571404088e-01 0.000000000000000000e+00
6.896059213023462142e-01 4.579228606614491603e-01 0.000000000000000000e+00
6.327134392792490569e-01 1.692220014944409989e-01 0.000000000000000000e+00
5.026382866065219890e-01 4.175500093448636374e-01 5.215427237450794840e-01
5.037021739108679119e-01 4.863171856179971941e-01 0.000000000000000000e+00
4.937803948383148178e-01 5.181372323277432246e-01 0.000000000000000000e+00
5.550818645798547557e-01 5.645613392199789748e-01 3.041578769207294863e-01
4.632581110044752259e-01 4.026065976289625592e-01 4.183857748714601144e-01
4.212334106257660249e-01 3.399595859447421820e-01 5.048557827881473559e-01
2.759526528552580515e-02 3.090356205480331298e-01 0.000000000000000000e+00
6.836890349324433735e-01 5.925303740940681685e-01 0.000000000000000000e+00
4.291684772366659573e-01 3.788733120961562673e-01 4.711355531565359911e-01
3.864418624394760915e-01 5.011712020412191215e-01 5.234149689047499221e-01
4.837020483675571469e-01 6.639148214600795184e-01 0.000000000000000000e+00
3.325888251403275042e-01 6.528540552352042337e-01 0.000000000000000000e+00
1.515095485998707581e-01 1.419180393673189489e-01 1.548022805080158104e-01
6.933762774325087364e-01 5.266244709619140041e-01 0.000000000000000000e+00
5.641979868393866004e-01 3.806844579641777138e-01 0.000000000000000000e+00
3.439523405389315336e-01 2.749710262200630861e-01 3.491120744464082382e-01
7.980055439246193094e-01 4.735349399538472115e-01 0.000000000000000000e+00
4.027930658002483177e-01 4.171126363144042060e-01 0.000000000000000000e+00
6.654888495582649277e-01 6.952981404883851191e-01 5.381086900311126131e-01
6.090679976187524103e-01 5.248737531646910925e-01 0.000000000000000000e+00
4.380566669815455505e-01 3.566182531531565392e-01 5.770830186734905443e-01
7.293200017066223673e-01 7.252131365792985340e-01 0.000000000000000000e+00
5.438826334842076227e-01 4.441984868491648530e-01 0.000000000000000000e+00
3.208812297373730971e-01 5.022558778523328327e-01 0.000000000000000000e+00
4.558776725350150993e-01 7.175113965973145547e-01 4.472352457489132682e-01
3.427486670386594714e-01 4.067649420045598152e-01 2.564760313772773692e-01
2.812462175863008618e-01 5.770342155302569109e-01 1.545283527628840137e-01
2.117375469844946512e-01 3.824384454940126243e-01 4.171857116326056492e-01
2.709696251869120331e-01 8.616837761452780242e-01 2.499858001072245983e-01
4.204182915829508538e-01 4.351389016797264642e-01 0.000000000000000000e+00
5.038804397356604348e-01 5.745408484049562281e-01 4.814313070120621596e-01
5.747604275316140487e-01 5.724206483168766679e-01 0.000000000000000000e+00
1.954627123683150280e-01 3.460516035148695213e-01 0.000000000000000000e+00
5.891106830772837588e-01 3.781017545127829393e-01 0.000000000000000000e+00
1.119115644920103403e-01 5.571177954278638822e-01 0.000000000000000000e+00
4.830894221878845318e-01 5.603683140062430956e-01 0.000000000000000000e+00
1.139295627166314606e+00 6.328383147150857813e-01 0.000000000000000000e+00
5.367325617428615470e-01 4.553755502668006550e-01 0.000000000000000000e+00
2.675076581569695300e-01 4.395079198246155672e-01 1.644421973162661921e-01
3.959393347817736775e-01 5.063583718510117349e-01 0.000000000000000000e+00
-1.076786276479420046e-01 3.427220205471959158e-01 4.122024127509769098e-01
2.415693854629012982e-01 2.941464246292762041e-01 0.000000000000000000e+00
3.939437676219184059e-01 4.418464446327348139e-01 0.000000000000000000e+00
1.296728875034599548e-01 6.359939852242137981e-01 0.000000000000000000e+00
4.945507049324204818e-01 -4.993076737907853335e-02 0.000000000000000000e+00
2.746186991573660308e-01 8.803984834097594581e-01 1.112400650327409757e-01
9.261443281701368102e-01 1.747958997228790112e-01 6.881264229685215561e-01
6.141390901316705619e-01 -2.449314161826403602e-01 2.731317971754545493e-01
7.381033647563909339e-01 6.184628929005786535e-01 0.000000000000000000e+00
1.835789090677302227e-01 4.900818308065362228e-01 0.000000000000000000e+00
8.316992706518535616e-01 5.920704271803521879e-01 0.000000000000000000e+00
5.850579798674387932e-01 3.187758115438859008e-01 0.000000000000000000e+00
4.663326825445501811e-01 1.121420939485605617e-01 0.000000000000000000e+00
5.383569124341037737e-01 5.836070351628410702e-01 0.000000000000000000e+00
5.640205727069032005e-01 1.392305580733486092e-01 3.366185587872004836e-01
3.160113845839265245e-01 6.709117676301418198e-01 0.000000000000000000e+00
6.761231250481185562e-01 3.684157852448013415e-01 0.000000000000000000e+00
8.374310360028771605e-01 5.886262249874686381e-01 2.481020033481535769e-01
7.642116433885328686e-01 6.078810684984750079e-01 0.000000000000000000e+00
2.958721173591060127e-01 3.737636371252324174e-01 0.000000000000000000e+00
6.599489972312508890e-01 4.955316665802800280e-01 0.000000000000000000e+00
4.822123734973999820e-01 5.678955341310331084e-01 5.201219680563230474e-01
7.717123569623589585e-01 5.372348468213361539e-01 0.000000000000000000e+00
8.993738015595141855e-01 6.746223460969327235e-01 0.000000000000000000e+00
1.003841867668270105e+00 3.202376340006900524e-01 0.000000000000000000e+00
4.600862413714326138e-01 6.597498255619640428e-01 0.000000000000000000e+00
4.928199728180115979e-01 3.443378112705968164e-01 2.148240446818956428e-01
6.154242810655213836e-01 5.163875508746273990e-01 0.000000000000000000e+00
2.937832762491940919e-01 4.329012628972642718e-01 3.231237700547584524e-02
8.421878122894796981e-01 5.160558454307474507e-01 2.537846378546888548e-01
-1.766258118088495088e-01 6.230519467749648932e-01 0.000000000000000000e+00
2.861008553644750485e-01 6.085169783333667093e-01 4.539974424590214053e-01
5.876205615759194645e-01 5.168339558779988518e-01 4.536426001162752186e-01
4.397130399706203896e-01 4.618895624905121622e-01 8.582694698475157313e-02
3.029727674399264048e-01 3.484411975047569943e-01 5.414431710152407540e-01
4.809741184117015678e-01 5.829445562363140265e-01 2.092253093586837753e-01
5.137583639988527739e-01 2.715113659368018073e-01 0.000000000000000000e+00
4.082060712291022408e-01 5.556242011248957446e-01 0.000000000000000000e+00
4.386284277527148223e-01 3.132719710659253032e-01 0.000000000000000000e+00
4.693333123148770714e-01 2.293602777654533131e-01 0.000000000000000000e+00
4.426815179563093894e-01 3.272243706257875751e-01 6.343927843947801959e-01
8.002113191480308974e-02 4.473386106207440926e-01 0.000000000000000000e+00
9.949011949869035476e-01 7.387732932212245363e-01 0.000000000000000000e+00
5.807853675218570544e-01 8.539943515681157615e-01 0.000000000000000000e+00
5.994837670396510054e-01 3.459720565619692767e-01 1.612842698604923797e-01
4.084006928490973021e-01 5.967797296177298483e-01 0.000000000000000000e+00
2.393324204371951591e-01 3.298995460894099674e-01 0.000000000000000000e+00
7.334029435479342274e-01 7.932704875904710295e-01 3.816891736292806758e-01
4.368694426475809856e-01 2.719727449479130144e-01 0.000000000000000000e+00
3.864874756588060345e-01 2.248405336060629311e-01 0.000000000000000000e+00
7.410452086823097195e-01 5.554236224049904358e-01 0.000000000000000000e+00
8.010997240083373994e-01 5.804941537403419671e-01 0.000000000000000000e+00
6.110169955037533240e-01 5.353603110503588614e-01 0.000000000000000000e+00
5.149896966642046880e-01 5.955578387173179333e-01 2.688800105934385787e-01
1.863119915173210295e-01 1.231846611116059753e-01 1.401094447716881852e-01
2.904062047262649937e-01 2.262811097946237915e-01 5.292327681099888714e-01
4.305236196988819763e-01 7.692571914379092712e-01 3.857947224460527291e-01
8.386839128120198161e-01 5.117499193167284188e-01 0.000000000000000000e+00
9.679708480834960938e-01 0.000000000000000000e+00 0.000000000000000000e+00
4.348368546771417265e-01 7.203596504563720693e-01 1.836142038289128031e-01
1.013970959106618164e-01 4.756252944888583745e-01 1.975850455492669244e-01
4.616924959517001437e-01 4.686368225558987799e-01 7.438085799698641587e-01
7.205509163642086490e-01 3.095283941362700908e-01 6.941805883105399699e-01
5.771723627213461993e-01 4.817954968062441168e-01 3.159084109473260238e-01
3.462169507179111427e-01 4.520880103667848093e-01 0.000000000000000000e+00
5.712885056496358471e-01 3.886323170213188405e-01 5.381255850960341425e-01
-1.335993128579215927e-02 6.235588724498563051e-01 0.000000000000000000e+00
6.257123700758082663e-02 3.330993267936521729e-01 2.212498137817815458e-01