POSCAR from GenerativeModels
1.0
2.000000000000000000e+01 0.000000000000000000e+00 0.000000000000000000e+00
0.000000000000000000e+00 2.000000000000000000e+01 0.000000000000000000e+00
0.000000000000000000e+00 0.000000000000000000e+00 2.000000000000000000e+01
Ag Al As At B Ba Be Br C Ca Cd Cl Co Cr Cs Cu Er Eu F Fe Fr Ga Gd Ge H Ho Ir K Kr Li Lu Mg Mn Mo N Na Nb Ni No O P Pd Pm Pr Rb Re Ru S Sb Sc Se Si Sm Sr Tc Th Ti V Xe Y Zn Zr
2 7 4 2 8 2 6 1 17 16 3 21 7 6 5 8 1 1 19 9 1 12 2 4 115 1 1 10 13 19 3 14 10 5 7 14 6 7 1 12 13 3 3 3 6 2 4 16 2 15 10 20 1 1 3 1 13 15 2 3 8 1
Direct
2.891288798774762636e-01 3.835178800617322636e-01 5.376132462944003265e-01
2.455453261786944008e-01 1.798412841085872405e-01 3.830800402781537883e-01
5.334461877888795334e-01 5.301717878462633982e-01 0.000000000000000000e+00
7.383961089512904863e-01 5.183438903571283562e-01 0.000000000000000000e+00
6.713525041010206529e-01 5.863131603817701709e-01 0.000000000000000000e+00
5.960070657869677158e-01 6.297392157974768256e-02 4.788910373146479937e-01
4.892863457572738106e-02 7.826230823677327031e-01 0.000000000000000000e+00
1.043031341449464744e+00 6.190978303751685230e-01 0.000000000000000000e+00
2.583859051183690081e-01 4.662189814882773398e-01 0.000000000000000000e+00
2.108539985069357581e-02 6.321974913864051304e-01 0.000000000000000000e+00
4.562592973147442388e-01 3.456833447550986538e-01 0.000000000000000000e+00
7.196243640162321986e-01 3.765773839926755961e-01 0.000000000000000000e+00
5.530240190018637092e-01 2.845727050561812632e-01 4.100311953768464024e-01
5.478775175879051496e-01 3.140543534551288873e-01 3.459115326519147660e-01
5.010126076205579926e-01 1.478279796554269332e-01 0.000000000000000000e+00
3.859849942200721529e-01 2.940975328008847978e-01 0.000000000000000000e+00
7.346944836350757235e-01 4.192327681780698700e-01 0.000000000000000000e+00
8.194189149728405841e-01 5.482553164700760817e-01 0.000000000000000000e+00
3.770610476486265794e-01 5.400670791816634120e-01 0.000000000000000000e+00
4.053448251820351844e-01 5.120159628006474284e-01 5.661455705246487558e-01
6.090173442159569905e-01 1.119416725452088146e-01 1.712513121620306000e-01
4.434508637828162847e-01 1.872304576121223141e-01 2.880686685810208703e-01
1.667242713469159199e-01 4.487310583058754521e-01 2.082576348995566207e-01
6.563773801089485271e-01 3.208172723550095640e-01 5.669578164822131061e-01
5.573482850124917842e-01 2.950619775735008332e-01 0.000000000000000000e+00
4.937744247944172438e-01 5.803225378606916562e-01 0.000000000000000000e+00
3.211372298775281298e-01 3.756323998652135732e-01 2.589948651793272383e-01
5.755049024123684021e-01 4.031360315413214934e-01 3.017419785714157143e-01
7.061134064835948854e-01 5.305072783228357292e-01 0.000000000000000000e+00
6.578149711771814623e-01 3.101064282255525661e-01 3.470350783946658524e-01
5.977341733237424570e-01 3.731544172148602012e-01 1.582495176362316291e-01
4.513562126745558345e-01 2.761751492741080227e-01 0.000000000000000000e+00
4.785917162929174129e-01 3.621874211429556567e-01 0.000000000000000000e+00
5.692369667410678291e-01 3.856260465796894632e-01 0.000000000000000000e+00
2.743947547763070371e-01 6.041262313384060390e-01 5.569566220764257114e-01
4.615251379622843375e-01 1.095838346282807185e+00 0.000000000000000000e+00
3.824576972844651035e-02 7.068639513181165235e-01 0.000000000000000000e+00
1.508621977589025276e-01 6.579960350994750184e-01 0.000000000000000000e+00
3.246464907375474773e-01 3.058050726756438298e-01 0.000000000000000000e+00
3.954941314365030269e-01 5.856048440383280207e-01 0.000000000000000000e+00
3.886327884399628507e-01 4.167612251440449000e-01 0.000000000000000000e+00
4.821713705682580953e-01 6.919256016702005629e-01 0.000000000000000000e+00
3.144932084790315052e-01 5.533905546359644267e-01 0.000000000000000000e+00
4.989707828757788954e-01 6.039425153382798062e-01 0.000000000000000000e+00
-1.594681779481663675e-01 6.135850375251920008e-01 0.000000000000000000e+00
4.440154087783276804e-01 3.040554428513322360e-01 0.000000000000000000e+00
1.926180074672154685e-01 3.960808258547561245e-01 2.574413094830760862e-01
3.567312047200934533e-01 4.009280259097327548e-01 0.000000000000000000e+00
3.470088490834289940e-01 2.715726164256592190e-01 2.760320267358655766e-01
4.431590926278459186e-01 4.570280498825176618e-01 0.000000000000000000e+00
3.287054897952781385e-01 4.204812336037544451e-01 0.000000000000000000e+00
8.718283306711408498e-01 5.328028519809840935e-01 0.000000000000000000e+00
3.528758084210370516e-01 4.664660803059970107e-01 0.000000000000000000e+00
4.408037981061545540e-01 4.685095551747022746e-01 0.000000000000000000e+00
9.786666384199449453e-01 2.908229595808028423e-01 0.000000000000000000e+00
7.021886300372692791e-01 4.479103542959098627e-01 0.000000000000000000e+00
1.416403921445056557e+00 5.450838316516783966e-01 0.000000000000000000e+00
5.866724521648607471e-01 6.990158635494365669e-01 1.317507389356585845e-01
1.178206338723768454e-01 -3.746081619678609531e-01 0.000000000000000000e+00
5.091692658328206278e-03 3.117011636332149838e-01 2.760240209019315660e-01
8.604756864709435238e-01 4.085364592523865745e-01 0.000000000000000000e+00
3.216181825356760893e-01 5.556927502210634584e-01 0.000000000000000000e+00
4.895857906478365829e-01 7.246920066629907176e-01 0.000000000000000000e+00
1.300562236939373228e-01 4.764998810356468883e-01 3.447607384150566112e-01
8.433967570254452539e-01 4.804710351885306263e-01 0.000000000000000000e+00
5.550486897160834543e-01 4.328670189017091996e-01 0.000000000000000000e+00
1.146086615813051157e-01 4.158512210860899616e-01 0.000000000000000000e+00
7.297980184262993220e-01 5.553652434340645705e-01 0.000000000000000000e+00
6.341942694867277464e-01 3.159558776743647268e-01 5.494748097811885668e-01
1.053733000444876389e+00 5.468855081374981442e-01 0.000000000000000000e+00
6.205437537350042554e-01 -1.145297476235953571e-01 0.000000000000000000e+00
6.051634137640735656e-01 4.606812681157752554e-01 0.000000000000000000e+00
7.461398141304699250e-01 4.582799990560065817e-01 8.048305067929306666e-02
6.221833217042670450e-01 5.564489096021997261e-01 0.000000000000000000e+00
2.951942395690138055e-01 5.415227087344681722e-01 0.000000000000000000e+00
8.574075373530409827e-02 5.311293589680511351e-01 0.000000000000000000e+00
4.412353863751868888e-01 5.996773901123770845e-01 5.167746591690839386e-01
4.931559113612415945e-01 6.160552820329211476e-01 3.860711630919850812e-01
4.764693397467720803e-01 1.073914779226557981e-01 5.015540975008336844e-02
6.393440884450769524e-01 5.277169796270508861e-02 0.000000000000000000e+00
-1.901569671234897285e-01 4.793422446384263402e-01 0.000000000000000000e+00
6.997785177195973150e-01 1.551798607175354228e-01 1.224649546695417701e-01
5.038247677285448978e-01 3.592304251963689410e-01 1.526762114556142746e-01
5.681429148979242338e-01 1.577261834216137082e-02 0.000000000000000000e+00
5.011870687721698969e-01 4.602647901805775321e-01 0.000000000000000000e+00
4.179532796007064954e-01 6.085455207497773022e-01 4.513380747664370585e-01
5.234661816783533483e-01 2.565095356643247726e-01 4.503502382376678437e-01
2.371444274680194475e-01 5.223950537208298384e-01 3.477666724866436132e-01
2.781132514775848108e-01 7.440434922463028400e-01 0.000000000000000000e+00
5.579967911652503609e-01 7.475933718906704328e-01 0.000000000000000000e+00
6.806855813723474702e-01 2.725629272675089698e-01 0.000000000000000000e+00
3.035176990603700720e-01 2.652114494682082935e-01 2.938576418600080675e-01
4.406907405022868485e-01 3.269370227860528555e-01 0.000000000000000000e+00
5.571251679080866381e-01 5.410864681133561449e-01 1.588707438078778011e-01
5.505282439705115882e-01 2.169122661473115166e-01 0.000000000000000000e+00
5.952167536792439817e-01 3.500611623983509446e-01 0.000000000000000000e+00
5.438400521302126922e-01 3.857293405995175783e-01 3.913058212121465207e-01
8.942012398804316531e-01 5.675271812897511037e-01 0.000000000000000000e+00
4.703164499719794112e-01 4.115234981657831526e-01 0.000000000000000000e+00
5.453168589709785907e-01 5.705146977928802210e-01 0.000000000000000000e+00
4.344540549721891409e-01 5.001621365622512805e-01 4.991836878639157593e-01
4.157481763227057758e-01 4.374822024082036798e-01 0.000000000000000000e+00
4.006565570045117486e-01 2.046238420277901593e-02 1.922253546038212857e-01
4.258260112951737231e-01 4.337872631271721957e-01 0.000000000000000000e+00
9.758443589829219889e-01 3.132806557114664603e-01 0.000000000000000000e+00
3.281088152394338042e-01 4.120100582740267026e-01 0.000000000000000000e+00
2.885880923152521760e-01 1.384672838795052430e-01 3.724798316329549497e-01
6.346723152233768594e-01 5.713276648913758748e-01 4.133648529862221643e-01
9.764677323662447339e-01 6.832725896543714317e-01 0.000000000000000000e+00
2.483105057043841768e-01 7.317223725734567363e-01 2.593016438562181225e-01
2.980594895495281005e-01 5.770403300143537306e-01 0.000000000000000000e+00
4.601795609213639171e-01 2.119433635957507223e-01 3.042207776060841251e-01
3.700613338928393503e-02 6.506040932256244025e-01 0.000000000000000000e+00
2.397232277491490038e-01 3.736871647765251936e-01 1.807275061962536622e-01
6.299611972665533077e-01 4.207786853827064633e-01 0.000000000000000000e+00
5.446328864349875287e-01 1.450230027665955213e-01 4.779713862082040077e-01
4.119804377779676674e-01 4.881798460124799899e-01 3.201562263083004289e-01
4.087414567148712763e-01 -9.252743231270055269e-02 5.816237767852289187e-01
6.982072785454688235e-01 3.238507007394268999e-01 1.481724704395592784e-01
1.850216376457397560e-01 6.252135042704158874e-01 0.000000000000000000e+00
4.317776775014074975e-01 2.963103098282404702e-01 5.505059687804797486e-01
1.787263737074507031e-01 3.165033564953073641e-01 1.996473382005685693e-01
4.546149652357682758e-01 2.618378686535088873e-01 0.000000000000000000e+00
1.852937620571706301e-01 5.171505939872805824e-01 0.000000000000000000e+00
-9.720477031752872143e-02 6.389079543066326083e-01 0.000000000000000000e+00
1.356574337306466482e-01 2.102593872271268927e-01 3.938665184187450929e-01
4.983215939823599783e-01 4.619499386486214387e-01 0.000000000000000000e+00
5.472431236227824902e-01 5.008081362592659014e-01 1.002541477420397786e-01
7.832960572118474740e-01 7.710526113722677710e-01 0.000000000000000000e+00
2.115521259637653806e-01 5.539082619001123309e-01 0.000000000000000000e+00
3.677363241052427068e-01 1.389504927183119465e-01 2.373912242827430630e-01
6.168439370329061866e-01 6.251683181689894342e-01 0.000000000000000000e+00
5.177180683781282822e-01 4.652128648902364993e-01 2.066852488301872404e-01
7.517112039968084636e-01 4.584292852202340729e-01 0.000000000000000000e+00
8.515104542339289040e-01 6.734172768864208347e-01 0.000000000000000000e+00
2.522500768026414431e-01 4.963201313627709776e-01 1.995444710287866963e-01
3.931099373648268003e-01 4.775177076209794480e-01 3.800196240146790361e-01
4.843757463030871069e-01 5.746796586872179313e-01 0.000000000000000000e+00
4.407604054328779775e-01 2.801032113230017551e-01 0.000000000000000000e+00
6.165505834769127169e-01 3.213850898891517094e-01 5.906931803832321526e-01
4.806588121707902062e-01 3.795510812913869270e-01 0.000000000000000000e+00
7.118727922079356452e-01 3.513181536422388396e-01 3.671593061359957888e-01
2.132544303407195585e-01 4.686060532392102296e-01 0.000000000000000000e+00
-1.241795337951696609e-01 6.811693738344328786e-01 0.000000000000000000e+00
4.135305622697074135e-01 4.659310172742674450e-01 2.987157631158052773e-01
8.880079344461333513e-03 5.706986599822775341e-01 0.000000000000000000e+00
4.488468297035469456e-01 4.863838043422796797e-01 0.000000000000000000e+00
3.449731015811059454e-01 4.018718284300895061e-01 0.000000000000000000e+00
5.180790624987068327e-01 5.016324219254147954e-01 0.000000000000000000e+00
3.662786225220850955e-01 5.429874524960806026e-01 0.000000000000000000e+00
7.576929365125653071e-01 6.557751104643373408e-01 3.084250386145919176e-01
3.615240816696323467e-01 6.105150880115323142e-01 5.176225806681711283e-01
3.269035885300621835e-01 8.367960525927176096e-02 0.000000000000000000e+00
7.002717727338119147e-01 5.790937916042790956e-01 5.823191359554275026e-01
7.277736417819861137e-01 8.063565998149790914e-01 0.000000000000000000e+00
7.361441622555208175e-01 2.645110875149272456e-01 1.421861192934639195e-01
7.973082273470692982e-01 4.425201636066452560e-01 5.088782610507737170e-01
4.013544930604320271e-01 4.120740274610041887e-01 3.631050145972388732e-01
4.328490158663078624e-01 3.978022490685855228e-01 0.000000000000000000e+00
1.379081817277674205e-01 5.261022328852437147e-01 0.000000000000000000e+00
5.791151537624105172e-01 7.818348469788459765e-01 0.000000000000000000e+00
4.666998620641649165e-01 5.298136912127134890e-01 0.000000000000000000e+00
5.436926038674882999e-02 4.247071558339043928e-01 2.583256564471745342e-01
4.324863651177899282e-01 5.104741795416389838e-01 0.000000000000000000e+00
5.839717204322691924e-01 -9.948178901006454744e-02 3.591310881113694009e-01
8.508234301659002297e-01 3.898318555221500503e-01 3.517789347876394412e-01
2.297680859686209720e-01 4.000131457464803919e-01 4.349998499673721764e-01
3.368920027809054751e-01 4.815395757130387366e-01 5.587118258970477092e-01
5.879053050514562173e-01 5.554068397917032440e-01 0.000000000000000000e+00
4.882873057400647365e-01 6.312932787923406508e-01 0.000000000000000000e+00
2.615002848147786052e-01 4.801209939163819662e-01 0.000000000000000000e+00
1.985970802387850842e-01 9.870645391951238246e-02 0.000000000000000000e+00
4.329118446568445133e-01 3.649098488284256980e-01 0.000000000000000000e+00
3.867143240665740223e-01 5.101118061048521835e-01 0.000000000000000000e+00
7.372802103274140872e-01 4.979906270520975120e-01 3.646256045073832386e-01
4.941858440695652277e-01 3.488153812395200504e-01 2.076769693507825032e-01
7.179384034611350218e-01 5.250491966711677838e-01 5.114216413796814908e-01
4.858514239340139262e-01 4.951619238072364482e-01 1.718257735278629905e-01
5.224618333358628242e-01 3.040390170114048995e-01 0.000000000000000000e+00
3.146742411250965654e-01 5.415615091632810518e-01 2.740654878922131887e-01
3.849951185713398338e-01 2.610597906707774474e-01 0.000000000000000000e+00
7.148651230790358246e-01 4.066791120939299287e-01 0.000000000000000000e+00
3.120849212224603431e-01 8.847632007959926881e-02 3.794907797405100425e-01
3.657556572210300949e-01 4.362822258760363781e-01 3.343757616064435556e-01
1.102345525289869510e+00 5.875078004688748523e-01 0.000000000000000000e+00
3.419690310726311022e-01 3.617297655714395432e-01 0.000000000000000000e+00
4.957910166228904902e-01 4.486982456023786980e-01 0.000000000000000000e+00
1.000838055425811168e+00 5.654733569198562293e-01 0.000000000000000000e+00
2.913368452365163730e-01 4.161809292320214348e-01 0.000000000000000000e+00
5.897152417964756088e-01 5.657657110115579258e-01 2.452303013973099466e-01
6.892137906348108078e-01 4.209639412527150792e-01 0.000000000000000000e+00
3.674510563855425405e-01 3.053055026339246414e-01 4.614052263259799114e-01
4.730760535948277390e-01 8.034271818066560655e-01 0.000000000000000000e+00
7.625790014792306337e-01 8.346925268677436449e-01 5.643149398774037762e-01
4.688578864052912465e-01 1.937067097099955948e-01 2.483279715674959753e-01
1.453805148722808749e-01 5.604145870773770133e-01 0.000000000000000000e+00
4.807138875422849456e-01 -8.003571799388331520e-02 0.000000000000000000e+00
9.184706895402821036e-01 7.641567234709422118e-01 0.000000000000000000e+00
7.730560874564718077e-01 3.958404645060675797e-01 0.000000000000000000e+00
6.288803271116543137e-01 6.847876800239672823e-01 0.000000000000000000e+00
6.033929137384915764e-01 2.837300463197398592e-01 0.000000000000000000e+00
1.016979099030931755e+00 5.070838195858748954e-01 4.404082783797786949e-01
4.043189628859142903e-01 3.079434943548092773e-01 0.000000000000000000e+00
6.652489282948245153e-01 7.643304510820723152e-01 0.000000000000000000e+00
3.996366000181015288e-01 5.737088073820606482e-02 2.051679650049192949e-01
4.778344261389887437e-01 2.542635076786959880e-01 0.000000000000000000e+00
6.848680088307850244e-01 2.544644964527614794e-01 0.000000000000000000e+00
8.529416687109787620e-01 2.244366653963802971e-01 0.000000000000000000e+00
4.484814885486763103e-01 3.456683101454571805e-01 5.427841040984192622e-01
5.120567675107350336e-01 1.699284468495989575e-01 3.103410134708173285e-01
7.890617465137349518e-01 1.168905890947341542e-01 7.670839909162840975e-01
7.543181969462710024e-01 2.449022331397658903e-01 3.111871325402856270e-01
8.489970956375487710e-01 4.495585570090321337e-02 6.006477334644140242e-01
6.223526843983215873e-01 4.507119211278168835e-01 0.000000000000000000e+00
8.160391472600810880e-01 6.974225137312729528e-01 0.000000000000000000e+00
3.832985765511329745e-01 4.210162257371485861e-01 2.810050065605085301e-01
3.036910189188708475e-01 3.648864461257035341e-01 0.000000000000000000e+00
3.660944422840208823e-01 5.967712773270784643e-01 1.474743406174183757e-01
7.105113836095832136e-01 5.048971059929595606e-01 2.895241149194827113e-01
1.105748568398331466e-01 2.329057148592902360e-01 2.729743154813237815e-01
3.600740848785706216e-01 5.609229078065259833e-01 3.690361644272136532e-01
3.383314400732896354e-01 6.653447705220445485e-01 0.000000000000000000e+00
4.045775530173522094e-01 2.880341373343275890e-01 6.111060757115309716e-01
4.331925004760592834e-01 4.109603930666573257e-01 0.000000000000000000e+00
3.883410715519266532e-01 4.043123326341415691e-01 0.000000000000000000e+00
9.156136506268195419e-01 5.088889121598442200e-01 0.000000000000000000e+00
4.864819355765708231e-01 5.313138673190790362e-01 0.000000000000000000e+00
7.897015513197618297e-01 6.191208740170155433e-01 0.000000000000000000e+00
2.548248444873275620e-01 6.805795728249146581e-01 4.588363488266261614e-01
1.724291080464301906e-01 2.439382557578386734e-01 0.000000000000000000e+00
2.234412521052310252e-01 4.890447330145821780e-01 0.000000000000000000e+00
6.111371613934399871e-01 5.024558795408091694e-01 0.000000000000000000e+00
3.883974316166628471e-01 3.218045718808659750e-01 0.000000000000000000e+00
5.483647758850842546e-01 2.031897071978616687e-01 0.000000000000000000e+00
3.669180142251788901e-01 3.852637404572809565e-01 0.000000000000000000e+00
4.163798169367873836e-01 4.664936154217034225e-01 0.000000000000000000e+00
6.222598433099841841e-01 4.207597193233614252e-01 0.000000000000000000e+00
1.064148707057075427e-01 3.241010324953279564e-01 3.995958206035559179e-01
9.231423611276357022e-01 5.778540513704076842e-01 0.000000000000000000e+00
2.231817868101635405e-01 5.226442642841235831e-01 0.000000000000000000e+00
4.581034211127126277e-01 2.839093833025380098e-01 3.678111132528447680e-01
3.236419152961922396e-01 -3.214956873284702255e-02 6.107135510319479099e-01
2.437884691243192847e-01 3.281174729421592051e-01 5.541262145603089717e-01
4.278484565931062189e-01 4.053591173796207148e-01 0.000000000000000000e+00
3.385281659068413163e-01 2.926862760678381470e-01 0.000000000000000000e+00
5.758095681496722129e-01 4.363851115983752305e-01 6.638902559389471270e-01
8.084438274764530474e-01 7.929134640101986875e-01 0.000000000000000000e+00
4.764566436779134051e-01 5.278191137699423940e-01 0.000000000000000000e+00
5.022268554168668464e-01 4.577626240279575320e-01 0.000000000000000000e+00
9.092199908036611156e-01 4.998806401862834203e-01 0.000000000000000000e+00
4.792255723748044538e-01 5.206216310271277736e-01 2.766933169266174719e-01
8.757286701857842637e-01 4.957648284911411185e-01 0.000000000000000000e+00
6.029116650848732606e-01 5.188607735986667802e-01 0.000000000000000000e+00
6.684550825596323742e-01 7.144852709302731419e-01 1.918740135128436108e-01
2.407962182402766382e-01 6.895422759989023875e-01 0.000000000000000000e+00
5.226463437395746370e-01 2.576893349131256228e-01 5.165148870219541388e-01
4.371624848723489887e-01 2.716130549229063273e-01 4.763747706137611004e-01
7.576424352142857588e-01 3.648898159895861415e-01 0.000000000000000000e+00
2.246876538905477894e-01 5.857041345242389729e-01 0.000000000000000000e+00
0.000000000000000000e+00 0.000000000000000000e+00 0.000000000000000000e+00
3.370580999677451617e-01 2.690865604038668035e-01 2.921942299010320543e-01
3.766085685073203848e-01 4.163507759757454352e-01 0.000000000000000000e+00
9.685323168663666493e-01 5.368535563208391981e-01 0.000000000000000000e+00
2.178125579616886354e-01 6.013044970778089748e-01 4.336524462414701464e-01
8.935165011419847758e-01 2.627084233169270089e-01 0.000000000000000000e+00
5.821718637555054476e-01 7.412417299663429660e-01 0.000000000000000000e+00
4.627690314411547767e-01 7.661627295166195672e-01 1.416898419942076437e-01
5.444173499564548546e-01 3.588499727489620206e-01 4.487563798833402728e-01
2.700852920582605954e-01 1.112814989012973488e-01 3.060574746483288866e-01
3.985051209012766549e-01 -1.426354303433285953e-01 0.000000000000000000e+00
5.136231852314686597e-01 4.149687270339224021e-01 0.000000000000000000e+00
2.205141530163121644e-01 1.863530237778977527e-01 1.789753504037490117e-01
2.826726203908980217e-01 4.263823649753597511e-01 0.000000000000000000e+00
6.428889041579353147e-01 4.944702595283982927e-01 3.547833318534490132e-01
2.529739363251575224e-01 5.852801058202525830e-01 3.414826258308133466e-01
6.264341952232707067e-01 4.202278615171209930e-01 2.940460750760942599e-01
6.344538079093378080e-01 4.816409547195129592e-01 0.000000000000000000e+00
6.462253408310439928e-01 3.387313392419208924e-01 0.000000000000000000e+00
5.304901363677297921e-01 5.106346246057025251e-01 5.972541608188971507e-01
5.331207980015791881e-01 2.309648656584407656e-01 3.670167629666671871e-01
7.604874255633471414e-01 4.083234844057584967e-01 0.000000000000000000e+00
6.208665825201346022e-01 6.897008019224305508e-01 3.753952459975387068e-01
1.153331565106612278e-01 7.765015172920484154e-01 0.000000000000000000e+00
4.999533237870164015e-01 4.604559400852208384e-01 0.000000000000000000e+00
1.982604647076804394e-01 6.204871031641423507e-01 0.000000000000000000e+00
4.495383343375478624e-01 4.433913419189093874e-01 4.148644657883246989e-01
4.628643432431835958e-01 3.265925713413952991e-01 6.221206768253998431e-01
4.690603422732415595e-01 2.506319206113927223e-01 0.000000000000000000e+00
3.142941949482174202e-01 5.784153555726907481e-01 3.887463937777271283e-01
4.615737603697793734e-01 4.853171471316379826e-01 0.000000000000000000e+00
3.404495025886091764e-01 6.194191939573067129e-01 0.000000000000000000e+00
6.363822199203523766e-01 4.015902623784044501e-01 3.895319470373814763e-01
4.581860852332348966e-01 5.858381634650021708e-01 0.000000000000000000e+00
1.975455381545523359e-01 7.273635457318278208e-01 2.442724137615972513e-01
2.415050870570040198e-01 4.338272737374677668e-01 0.000000000000000000e+00
8.174521930293070504e-01 6.137254218308926257e-01 5.319973923513749980e-01
8.757932172116721370e-01 7.896454546285911480e-01 0.000000000000000000e+00
5.976638700313747776e-01 6.224076840500079033e-01 0.000000000000000000e+00
5.294310834898398044e-01 1.125663930302966964e-01 0.000000000000000000e+00
5.030441635099285325e-01 3.505141809536640451e-01 0.000000000000000000e+00
5.067852260196329395e-01 3.179075331584331199e-01 4.589359321958710325e-01
2.732881827870305980e-01 3.797041961259974840e-01 1.643358226973407055e-01
2.111084269095059307e-01 3.308132437603208409e-01 5.319085273379118295e-01
-8.695075217001968504e-02 5.097760493738479060e-01 0.000000000000000000e+00
2.863854595880894749e-01 6.190266567216127225e-01 1.736095224280842508e-01
6.702792423195690352e-01 2.154333423847318851e-01 5.497033798955088812e-01
6.606051396853541702e-01 3.773790357876463109e-01 0.000000000000000000e+00
5.092168521644956369e-01 3.855519010435735083e-01 0.000000000000000000e+00
4.658295832182002272e-01 3.989695928212881881e-01 5.901114062864060150e-01
2.335540408542172708e-01 2.960961554459534684e-01 5.409104782780874698e-01
6.511146588994608519e-01 2.586900578003386020e-01 0.000000000000000000e+00
7.958638025516403536e-01 5.301253218110215659e-01 0.000000000000000000e+00
5.254704336634340445e-01 5.172193079929704451e-01 1.711017102060127248e-01
-2.932884381417921738e-02 6.662641205319369542e-01 0.000000000000000000e+00
6.197799278079951790e-01 3.824474358255163242e-01 0.000000000000000000e+00
4.851824762502141564e-01 4.321978355950164552e-01 5.188672736325042889e-01
4.599926781387053687e-01 5.622357787778813343e-01 0.000000000000000000e+00
3.257919142697862647e-01 2.815402615834745603e-01 0.000000000000000000e+00
1.114762590299145817e+00 5.966187368269131319e-01 0.000000000000000000e+00
6.079678758282665019e-01 4.389105797976811107e-01 2.188783004406785748e-01
1.014229779566766521e-01 1.524872483448981297e-01 6.289540887121285451e-01
7.428237473267675917e-01 5.570748921865965597e-01 0.000000000000000000e+00
4.595151250156142009e-01 2.728949237289068908e-01 0.000000000000000000e+00
4.747968312143160396e-01 3.286968933375478130e-01 0.000000000000000000e+00
4.406648187587054455e-01 4.694334939381950011e-01 0.000000000000000000e+00
3.859141903134059026e-01 2.148161038324141181e-01 1.804154289678916445e-01
8.256894130906806684e-01 7.254736846722376065e-01 0.000000000000000000e+00
7.346890132003407459e-01 2.680490395006243087e-01 3.241310565509145647e-01
4.247705822959930710e-01 5.437091084280248898e-01 0.000000000000000000e+00
4.932875075006728505e-01 2.318169441537416553e-01 6.311820918644579503e-01
4.695090486325803614e-01 4.191381289556803669e-01 0.000000000000000000e+00
4.748060351815717173e-01 6.859990104574844594e-01 5.362698341483451703e-01
5.154909669374773129e-01 4.575003328126470148e-01 2.838961646939766048e-01
4.796126498818664707e-01 2.159016821344382775e-01 0.000000000000000000e+00
7.647309730871945099e-01 4.377880111932404006e-01 4.344828873785158141e-01
6.663589028958082361e-01 3.511964383639468723e-01 1.389294831711672673e-01
1.067400506426995355e-01 4.106493518191265402e-01 0.000000000000000000e+00
3.269417083936815294e-01 7.636209596743736006e-01 2.270290697661969670e-01
8.368019502552869193e-01 3.200670132659393374e-01 4.997715401639934996e-01
6.169525224372849337e-01 5.425003630736251470e-01 2.401992241798813765e-01
5.713014225020074388e-01 3.886596089646594532e-01 0.000000000000000000e+00
1.721620604434761503e-01 4.405288360106527357e-01 0.000000000000000000e+00
4.280088006321527416e-01 1.941482841616560817e-01 2.478042260633789295e-01
5.908907062865441651e-01 5.358262633136500197e-01 0.000000000000000000e+00
7.593771682940546608e-01 6.173584408420293990e-01 0.000000000000000000e+00
8.391752958314775412e-01 5.523187435657256339e-01 0.000000000000000000e+00
1.754973746355339426e-01 5.310333362716976868e-01 0.000000000000000000e+00
4.021717268631512798e-01 4.688475562806404540e-01 1.991648848098368507e-01
3.888915049419837677e-01 5.625851119459646110e-01 0.000000000000000000e+00
6.963512389612206421e-01 3.788899039803642621e-01 0.000000000000000000e+00
1.461401781527650323e-01 1.620558547123179816e-01 3.787694736735627288e-01
1.074664540365705134e+00 6.378057786971416121e-01 0.000000000000000000e+00
4.786773034304384611e-01 1.964324390133851406e-01 5.964737245299845947e-01
3.142108793542768286e-01 3.487877370378962283e-01 2.266668859970222272e-01
2.616044211454291446e-01 5.197823685028007956e-01 0.000000000000000000e+00
-9.266429177667112604e-02 4.196520495834606956e-01 6.375642333316796639e-01
6.730577185651137606e-01 3.739494680479131805e-01 2.889058416733190082e-01
7.555077376090089114e-01 7.045073868110657278e-01 0.000000000000000000e+00
3.784435097119798197e-01 4.708560402016706004e-01 0.000000000000000000e+00
8.048217553739056562e-01 6.857947691891649322e-01 0.000000000000000000e+00
5.965274135670891598e-01 6.314612082176489505e-01 1.235719329146691692e-01
3.154897165853549623e-01 2.866443965041469699e-01 0.000000000000000000e+00
6.744721683488462682e-01 1.202138083789933143e-01 1.023153850003293286e-01
2.930664915310667862e-01 5.030019947672207392e-01 0.000000000000000000e+00
3.998760626973254517e-01 4.931318245669447098e-01 0.000000000000000000e+00
7.534839756238107533e-01 3.186402276900721642e-01 0.000000000000000000e+00
4.916397029012760100e-01 1.413125230762541928e-01 0.000000000000000000e+00
3.882101187255445618e-01 7.397368798607272256e-01 3.553081496643948345e-01
6.719122872430569604e-01 7.362816875476780876e-01 3.280099845258461766e-01
-1.899037194830621722e-02 9.176773674451106366e-01 0.000000000000000000e+00
4.968218656256798704e-01 2.250809749187707709e-01 0.000000000000000000e+00
6.055021744596932320e-01 6.278346038457793821e-01 4.868330210509076439e-01
4.484085322281399222e-01 4.044796480619468060e-01 1.085053120623522549e-01
7.072309081018200994e-01 5.086373061689998254e-01 2.999038213060158942e-01
-1.967385196296362881e-01 2.285595540878107013e-01 6.931863231987533958e-01
5.552005299011637529e-01 1.228618665238170315e-01 0.000000000000000000e+00
4.779979952114454811e-02 8.235201231138292721e-01 0.000000000000000000e+00
9.844618880932621829e-01 2.332386340370348199e-01 3.866217501286832725e-01
6.355414852886295263e-01 1.600347660903089775e-01 2.792408729682600566e-01
6.968320029145593786e-01 5.149850784553849925e-01 5.259628914682744627e-01
1.764235925649904058e-01 3.928334324763725904e-01 0.000000000000000000e+00
-1.954622940771746364e-01 7.369562304995554980e-01 0.000000000000000000e+00
-2.318413765685338745e-01 1.074375886488825982e+00 0.000000000000000000e+00
5.495546896333485254e-01 3.161130710688356826e-01 0.000000000000000000e+00
6.490772004762783709e-01 5.128713478723637698e-01 5.182445311617676076e-01
5.406965006599941947e-01 3.557803066061563380e-01 4.907912500569593384e-01
2.642816257405473657e-01 5.542286824232502962e-01 0.000000000000000000e+00
4.652066328581760946e-01 4.284800676774811468e-01 2.620801900240741222e-01
5.705347461518048835e-01 5.037282845498561867e-01 3.966795266544178578e-01
5.596779550052265462e-01 3.557248707869282711e-01 0.000000000000000000e+00
6.640556070468121019e-01 3.726102134012891920e-01 3.933735244658653762e-01