POSCAR from GenerativeModels
1.0
2.000000000000000000e+01 0.000000000000000000e+00 0.000000000000000000e+00
0.000000000000000000e+00 2.000000000000000000e+01 0.000000000000000000e+00
0.000000000000000000e+00 0.000000000000000000e+00 2.000000000000000000e+01
Ag Al As At B Ba Be Br C Ca Cd Cl Co Cr Cs Cu Eu F Fe Fm Fr Ga Gd Ge H I In K Kr La Li Lu Md Mg Mn Mo N Na Nb Ni No O P Pd Pm Pr Rb Rh Ru S Sb Sc Se Si Sn Sr Ta Tc Te Th Ti Tm V Xe Y Zn Zr
7 4 5 1 19 1 11 3 15 20 3 29 9 9 8 8 1 27 4 1 1 16 3 5 184 2 3 14 23 1 23 3 1 18 9 6 5 15 5 23 3 11 10 3 3 1 9 4 4 10 2 13 11 20 2 3 1 3 6 1 12 4 18 1 2 11 3
Direct
3.655826869225200504e-01 6.192799545896061630e-01 5.045911593634746506e-01
5.877637745776582712e-01 5.290365244775936393e-01 0.000000000000000000e+00
1.175287016200928791e-01 6.356899891919862711e-01 0.000000000000000000e+00
7.860304795849657467e-01 4.366498184376474967e-01 4.855603977165259266e-01
2.306791455475271091e-01 1.233042229319676331e-01 3.767147405844992747e-01
1.428111297668962498e-01 4.850858550778081035e-01 0.000000000000000000e+00
9.315114761795229015e-02 6.765013962536401415e-01 0.000000000000000000e+00
8.916290309322324470e-01 1.468209867800133184e-01 5.584397161357955719e-01
1.536523199295808384e-01 4.736186198848032491e-01 0.000000000000000000e+00
1.009336831296119064e+00 7.868337411418578897e-01 0.000000000000000000e+00
6.223706703881697333e-01 3.050258162778392013e-01 0.000000000000000000e+00
3.884541455620142969e-01 6.791358278828573125e-01 0.000000000000000000e+00
6.565991612247157327e-01 5.170126270978577798e-01 0.000000000000000000e+00
4.524233770010250844e-01 3.547667976046482430e-01 0.000000000000000000e+00
7.462530361307433413e-01 3.479487591805594526e-01 0.000000000000000000e+00
6.665530982077718658e-01 3.927620142581472740e-01 0.000000000000000000e+00
7.452753894179240390e-01 7.026561235439371389e-01 3.080688307030380324e-01
5.506433819786213935e-01 6.979304361686210489e-01 0.000000000000000000e+00
7.695870826394894948e-01 3.198418969531720002e-01 3.455035429647982381e-01
3.118151226025398515e-01 4.706113233999397183e-01 0.000000000000000000e+00
3.171340511818172558e-01 4.999471742842365174e-01 0.000000000000000000e+00
3.600014771426336413e-01 1.599721307050011587e-01 1.309866932766207137e-01
-1.916450735758015167e-01 9.167442049142222604e-01 0.000000000000000000e+00
2.751092136979854663e-01 3.538535232452370005e-01 0.000000000000000000e+00
1.724732560212429711e-01 4.385843267898514863e-01 0.000000000000000000e+00
6.466292319192844529e-01 1.064513256421522058e-01 1.271478720119821881e-01
4.137626922849821920e-01 4.166089727795754261e-01 3.374753238700450853e-01
-2.952574832253485049e-02 4.007260691862719604e-01 4.328897379906112564e-01
3.663871652040531224e-01 3.462406393190340381e-01 2.994780609724052578e-01
8.148687033543313696e-01 5.682225782408641956e-01 0.000000000000000000e+00
7.040039369181556594e-01 5.405860754608065033e-01 2.044715083648220855e-01
5.193709170553083565e-01 2.687377682539126011e-01 0.000000000000000000e+00
7.069347455395951219e-01 2.884634584056374740e-01 0.000000000000000000e+00
6.972355624576249689e-01 3.536034020486769069e-01 2.222874530501015577e-01
4.088948855104550528e-01 6.680134806781038437e-01 0.000000000000000000e+00
3.328282849339516680e-01 4.800454319599822828e-01 0.000000000000000000e+00
7.680056833234442104e-01 5.687097074168095956e-01 0.000000000000000000e+00
2.974816341645869500e-01 4.304687011558996357e-01 0.000000000000000000e+00
2.675026209948940803e-01 3.928251968246652126e-01 0.000000000000000000e+00
1.926468804357234221e-01 5.728569573970733186e-01 0.000000000000000000e+00
3.384950425728165957e-01 9.435048997324948505e-01 1.267962823220759594e-01
6.254870451585925473e-01 5.891849529457058310e-01 4.342792305245746221e-01
7.896247031404152183e-01 3.769868275411667469e-01 0.000000000000000000e+00
1.137850905477156838e+00 6.964358880299591492e-01 0.000000000000000000e+00
5.816727519124997858e-01 8.002629703602617273e-01 0.000000000000000000e+00
5.930067184472357367e-01 3.839663690257201223e-01 0.000000000000000000e+00
5.461439348764888235e-01 4.292890463102266851e-01 4.126714163044955530e-01
3.915168207991623905e-01 5.735658669698089351e-01 5.556986929464383662e-01
3.706458694271542731e-01 3.972197915927042633e-01 3.602455816569787306e-01
6.393351529376687381e-01 2.740813519760161299e-01 6.285140939076918620e-01
5.133601525120947695e-01 5.979478681917290706e-01 0.000000000000000000e+00
1.343883784792364589e-01 5.217854481716237558e-01 4.606081478125134687e-01
5.811364613026599457e-01 4.760655011488441612e-01 0.000000000000000000e+00
8.590007365573522069e-01 4.768084636578628910e-02 2.306049134845657989e-01
2.645852546144358275e-01 5.673662873734682810e-01 0.000000000000000000e+00
4.424013900177539149e-01 3.002733285067187285e-01 0.000000000000000000e+00
1.836733605571456707e-01 6.435079441342587137e-01 0.000000000000000000e+00
6.321691752915917784e-01 9.179111044426933042e-01 0.000000000000000000e+00
6.305142717879050895e-01 4.580150346950642160e-01 1.517165642780908819e-01
4.256027285718717579e-01 2.399554657704235927e-01 5.540449097842609083e-01
-9.294626099175529177e-03 5.425796567567041651e-01 0.000000000000000000e+00
2.843789702906598382e-01 -4.193493154362526454e-02 6.736931332283349061e-01
7.432357870195781535e-01 4.992548237493743546e-01 2.443295772439815217e-01
5.591962031119164234e-01 1.998660888676868641e-01 3.927031014489394956e-01
9.012586341978521265e-01 6.726333534863749852e-01 3.001331013049879370e-01
9.684290611953882966e-02 5.189943760673286777e-01 0.000000000000000000e+00
3.217884356022642223e-01 1.933400188218461491e-01 0.000000000000000000e+00
-9.722063044272455379e-02 7.021831194460075309e-01 0.000000000000000000e+00
7.122969259147691190e-01 7.253415926705349959e-01 5.531944955455078139e-01
2.514488335774733851e-01 1.945353910890713633e-01 5.062348711506212684e-01
2.060963319779252068e-02 5.233269886589443365e-01 0.000000000000000000e+00
3.446054742072741650e-01 1.938512368838725131e-01 5.260166952332248069e-01
6.534850586710816422e-01 4.775592120451519484e-01 0.000000000000000000e+00
6.649124896937226303e-01 4.788492663204466648e-01 0.000000000000000000e+00
6.512988780844266579e-01 5.109430425448210356e-01 0.000000000000000000e+00
1.877321607465223252e-01 7.318807669678174532e-01 3.876642252462494387e-01
5.444434715089991883e-01 3.704809524363161799e-01 0.000000000000000000e+00
8.736617873370596810e-01 2.962471496707048679e-01 0.000000000000000000e+00
5.421762971485681870e-01 3.355581024868401485e-01 2.156249997672261554e-01
-1.228889495641238838e-02 3.052442515661878408e-01 0.000000000000000000e+00
5.941171151357620417e-01 1.611909098161530274e-01 4.901103662567034558e-01
5.226930104063244320e-01 5.917503242303580047e-01 2.768386715574092660e-01
4.906474901373876207e-01 2.619260442062225636e-01 4.863161789554626413e-02
3.057649781288294122e-01 6.751517539298301784e-01 1.247652496428405255e-01
4.572882150640653620e-01 4.008959155749957093e-01 2.799062145022153114e-01
2.285972112394443201e-01 6.849704753791342471e-01 0.000000000000000000e+00
8.670300671456665498e-02 6.794601333369469920e-01 0.000000000000000000e+00
4.458564966588220990e-01 6.385719880363736056e-01 0.000000000000000000e+00
5.421526645765014640e-01 4.075314182689228071e-01 0.000000000000000000e+00
2.688735393992189859e-01 6.784815575985310154e-01 0.000000000000000000e+00
4.848928097608170562e-01 3.396821428674592358e-01 5.138854024429523326e-01
6.575314710514729155e-01 -1.002452794373853706e-02 3.568810519036584861e-01
7.503053844332115974e-01 6.245296170874908848e-01 0.000000000000000000e+00
9.000801262092142929e-01 3.878166876205078051e-01 0.000000000000000000e+00
5.276753561236676715e-01 3.343731031427902289e-01 1.697708184406604426e-01
8.460099114949793941e-01 5.094782854736104039e-01 0.000000000000000000e+00
4.843312562206119054e-01 4.101674705704760893e-01 2.584154262910162148e-01
9.867280875142458996e-02 5.645535492772614239e-01 0.000000000000000000e+00
4.839135684307755980e-01 7.106496276137602708e-01 2.946529694597437299e-01
3.869409280574451770e-01 6.079976527355270832e-01 0.000000000000000000e+00
4.831636313694409601e-01 3.669977876712535725e-01 0.000000000000000000e+00
8.271861395675271789e-01 1.058371386449178386e-01 5.690447321753872023e-01
4.070030577000003369e-01 4.708015766594489948e-01 0.000000000000000000e+00
4.757076839193185025e-01 4.539128690506193387e-01 0.000000000000000000e+00
8.276114178496213336e-01 6.246572236094701802e-01 0.000000000000000000e+00
7.704234235172616740e-01 1.248817653944938044e-01 3.808247677909456508e-01
2.638500502690022120e-01 6.516447227476633852e-01 0.000000000000000000e+00
5.050070005267600637e-01 3.682545124746543497e-01 0.000000000000000000e+00
9.373412786947663555e-01 4.436111276990928332e-01 0.000000000000000000e+00
-3.352992661743936509e-02 2.176255545822768367e-01 5.389667868492800107e-01
4.638478709620728058e-01 2.302840877558020027e-01 0.000000000000000000e+00
8.308643703022856597e-01 6.440656674888369793e-01 0.000000000000000000e+00
5.846548321551007232e-01 4.730668547697953752e-01 0.000000000000000000e+00
7.132589647671392363e-01 5.215351797395849642e-01 0.000000000000000000e+00
9.187967300415039729e-01 0.000000000000000000e+00 0.000000000000000000e+00
3.755226927906849532e-01 5.363076944514547639e-01 2.644958664855470154e-01
1.940145371734511848e-01 4.000870574225474652e-01 0.000000000000000000e+00
1.075575660386988153e-01 5.921695048208567291e-01 0.000000000000000000e+00
4.360330932462124220e-01 2.384065805167194796e-01 0.000000000000000000e+00
9.195405659625710548e-02 3.403296824580134272e-01 0.000000000000000000e+00
4.765633971788828527e-01 4.964848801764198960e-01 0.000000000000000000e+00
5.477114723301580446e-01 3.042461142295821430e-01 0.000000000000000000e+00
6.769944700143986083e-01 4.422868125159544750e-01 0.000000000000000000e+00
6.374117613381988789e-01 5.125944883180494349e-01 0.000000000000000000e+00
4.875192324597091842e-01 3.721603288673790422e-01 1.341241905148837787e-01
5.199731814477476233e-01 2.946972106589336171e-01 0.000000000000000000e+00
9.694260801692812235e-01 6.515053844702666241e-01 0.000000000000000000e+00
4.224117834811049743e-01 4.663022819888980042e-01 0.000000000000000000e+00
3.961781761950573522e-01 8.307380710647290778e-01 0.000000000000000000e+00
1.829173234887923050e-01 4.283209347608925022e-01 1.573608881526286085e-01
6.219933414268536964e-01 5.553245992778549356e-01 5.872465405088611590e-02
5.813525119889508819e-01 5.657160891902973665e-01 2.151034263393942769e-01
2.934102915080938345e-01 5.835489235139452724e-01 0.000000000000000000e+00
5.277256706497754912e-01 7.180242217731048759e-01 1.347910353570225261e-01
6.830211355400026552e-01 1.020631576816690700e-01 1.091186835469732941e-01
4.534755145162592260e-01 5.434382068085059636e-01 0.000000000000000000e+00
2.164116434349487861e-01 5.681858604449775418e-01 0.000000000000000000e+00
7.028397379083102248e-01 2.828086820748249020e-01 5.365890727414495132e-01
5.625789245739046818e-01 6.216727407223500146e-01 0.000000000000000000e+00
-2.055742507833189237e-01 7.526824491035707387e-01 0.000000000000000000e+00
2.384937924095726913e-01 1.360869391100717474e-01 3.945830658301887617e-01
1.402495823051452817e-01 6.650899146877283785e-01 0.000000000000000000e+00
4.384518235325791657e-01 2.359196990478861222e-01 0.000000000000000000e+00
3.275127846750575111e-01 6.332254855050218900e-01 0.000000000000000000e+00
8.414866952874195949e-01 3.797441962102185986e-01 0.000000000000000000e+00
6.489769732156238646e-01 4.813525598595653765e-01 4.822853540580371856e-01
4.218972480112271883e-01 4.623301024908933465e-01 0.000000000000000000e+00
3.325810524316734629e-01 2.628467268517817867e-01 0.000000000000000000e+00
7.823005385918996302e-01 5.377256475969091065e-01 1.308799906165768467e-01
4.760584442441284647e-02 5.274398192791946993e-01 0.000000000000000000e+00
8.482623983114216948e-01 6.338392722727732576e-01 6.654554527383305107e-02
6.605015307496868715e-01 5.636303312236264906e-01 0.000000000000000000e+00
5.893476028646431608e-01 5.601596094635203915e-01 0.000000000000000000e+00
1.043019305223514825e+00 5.871298115642169524e-01 0.000000000000000000e+00
6.326169079817802743e-01 4.466847116608796409e-01 3.287591310374871068e-01
1.906855466766659291e-01 4.984896574030961425e-01 0.000000000000000000e+00
2.694888252153759822e-01 6.320055357352325487e-01 0.000000000000000000e+00
6.252715893369663602e-01 4.926040304857501884e-01 4.761563627996965309e-01
4.282935097583866479e-01 3.473520741375395460e-01 0.000000000000000000e+00
9.540752980192410693e-01 6.773764556832019279e-01 4.836868797837687861e-01
7.146939706944426263e-01 7.254703727205443764e-01 0.000000000000000000e+00
7.801620861393154804e-02 6.791144626889087377e-01 3.048522296115181440e-01
8.038113844826635379e-01 5.739485284514223018e-01 0.000000000000000000e+00
2.217373294534157324e-01 4.122035316049992293e-01 4.743075323990366687e-01
9.619699152524404662e-01 6.296882273658237494e-01 3.723283984193015428e-01
2.492637762870879570e-01 6.925312823403421136e-01 0.000000000000000000e+00
2.535678076476135523e-01 4.584397810098352899e-01 0.000000000000000000e+00
5.624272992856563791e-01 6.667606368462292155e-01 0.000000000000000000e+00
6.474218413040920828e-01 4.796461032969960847e-01 0.000000000000000000e+00
7.754890612620586321e-01 4.971237376098014416e-01 4.756215899864471019e-01
7.966027224816929486e-01 5.042467308918175961e-01 0.000000000000000000e+00
4.411571420369054808e-01 4.994670632527227205e-01 0.000000000000000000e+00
2.218774225974337044e-01 2.109458816310281204e-01 4.251340862456648440e-01
5.306371787464154721e-01 4.984936590135731205e-01 0.000000000000000000e+00
2.792128534097706449e-01 4.210955961632221189e-01 2.796101219685834804e-01
4.628746097925440228e-01 5.318443155926197985e-01 4.067403755210785565e-01
7.848808891200544924e-01 4.590086755107176675e-01 0.000000000000000000e+00
3.869203472096205410e-01 4.027596871726528693e-01 4.976885112145768009e-01
3.531429017723584085e-01 5.465513541990597579e-01 0.000000000000000000e+00
1.560894004347639363e-01 5.814023488853242716e-01 0.000000000000000000e+00
6.428722364072467776e-01 4.989064382173151735e-01 0.000000000000000000e+00
3.914536850481309394e-01 2.325546217637253221e-01 0.000000000000000000e+00
9.976117898503846781e-01 7.264797976413757130e-01 0.000000000000000000e+00
4.108232062223013958e-01 6.667059189201989255e-01 0.000000000000000000e+00
7.034433164554559914e-01 3.536754090347455914e-01 0.000000000000000000e+00
4.649891889490309627e-01 4.670756262137996107e-01 4.893747052179229229e-01
-1.590993164850793562e-01 5.309006036213410606e-01 0.000000000000000000e+00
8.749237729312041578e-01 4.554376919628820852e-01 0.000000000000000000e+00
6.890095149614777759e-01 -5.960195848846483457e-02 2.886759227838624486e-01
5.410250895356401024e-01 5.477376700892673256e-01 0.000000000000000000e+00
8.917906534130715102e-01 5.316978382183216167e-01 2.947620606112726360e-01
7.999591707071931346e-01 4.237960380045251441e-01 6.241032658529954702e-02
8.800022084620464646e-01 3.610837564776608888e-01 2.423314788671711018e-01
3.614971534508517603e-01 1.317142219480951226e-01 3.421181567129355505e-01
7.059134190081879368e-01 5.162297921778439269e-01 1.854911722111468597e-01
2.592636342266817495e-01 6.063655509775286445e-01 0.000000000000000000e+00
-2.039782463230999099e-02 4.977127702367638573e-01 0.000000000000000000e+00
3.538215361906110745e-01 -2.043137047447034504e-01 3.489519694499101377e-01
5.649232053435122580e-01 1.114507304244906072e+00 0.000000000000000000e+00
7.422838301778673653e-01 3.474134996395110697e-01 4.516602535408846819e-01
7.447769349509518744e-01 3.153186162195940057e-01 0.000000000000000000e+00
7.484611838988252108e-01 2.986232957384195030e-01 4.332999046589933734e-01
4.022727238026635455e-01 4.999344120716051609e-01 0.000000000000000000e+00
1.094786217185870214e-01 7.928258499384370772e-01 0.000000000000000000e+00
3.563782946990994294e-01 3.791913057595932557e-01 5.975081292536434940e-01
2.694224636980313559e-02 4.757851670542128097e-01 4.959306367717953856e-01
6.511386471104603224e-01 4.359578672037682789e-01 4.655285453027536713e-01
1.806356703912518347e-01 5.496680650506953203e-01 0.000000000000000000e+00
6.381677420891886943e-01 6.217048894326364650e-01 0.000000000000000000e+00
8.125931651356858021e-01 8.244327603145449324e-01 0.000000000000000000e+00
2.788828761995342242e-01 1.820816041364350379e-01 3.863962420833026989e-01
7.968188303154424279e-01 4.406501073184345696e-01 4.270323608491091161e-01
3.235764912261912540e-01 5.823340572397205372e-01 0.000000000000000000e+00
3.711065341690953368e-01 2.277008078593911744e-01 4.310420739003573143e-01
2.467932382717776818e-01 5.705238104598869819e-01 0.000000000000000000e+00
8.957149707696052676e-01 5.647798870424651785e-01 0.000000000000000000e+00
7.526075471034514575e-01 2.575474139777501614e-01 3.667917553013118059e-01
-2.351709285554695050e-01 6.716004775101376278e-01 0.000000000000000000e+00
3.800978461274924225e-01 2.698104825476392854e-01 5.536254073216494431e-01
4.852423099965006426e-01 4.556937569495045359e-01 2.882512304253918023e-01
3.314523445064305740e-01 2.710144649497634450e-01 0.000000000000000000e+00
3.551085475081114939e-01 5.333715612768149539e-01 3.648569922223250384e-01
2.568319803115299838e-01 4.531035352008729866e-01 0.000000000000000000e+00
-3.843167485639842340e-04 5.823899692507007453e-01 0.000000000000000000e+00
7.293462146442655225e-01 5.063111890359891509e-01 0.000000000000000000e+00
6.066095040364725133e-01 9.414266462766884835e-03 1.697686813404031270e-01
6.272598834079141650e-01 3.814711256879800283e-01 2.359642971315046855e-01
2.914513368123853310e-01 5.231264831022212070e-01 3.809833365151228390e-01
5.337348702840165604e-01 6.379277598558340534e-01 0.000000000000000000e+00
7.927031894222329456e-01 1.971623512649650634e-01 0.000000000000000000e+00
4.224763273668981078e-01 3.466366029549441397e-01 0.000000000000000000e+00
5.582301640750290117e-01 3.287339213013211747e-01 0.000000000000000000e+00
6.102916847643083953e-01 7.147399978628413697e-01 2.429063413404196625e-01
5.211152957638085503e-01 6.770084922288790441e-01 0.000000000000000000e+00
9.402001603704136512e-01 5.015613130314846568e-01 0.000000000000000000e+00
4.904245380538196919e-02 6.338906423323441564e-01 0.000000000000000000e+00
3.421180724012355956e-01 5.945534717356497634e-01 0.000000000000000000e+00
-9.149694022418053407e-03 7.466014589696523540e-01 0.000000000000000000e+00
6.457975039981800336e-01 2.893946014384749521e-01 2.796804227416058719e-01
5.559756281800076749e-02 4.232012096575012983e-01 0.000000000000000000e+00
2.382102506777534767e-01 3.293138441020684315e-01 0.000000000000000000e+00
1.906051212953537854e-01 2.994165643486106365e-01 4.585257688489240424e-01
8.233791176941086531e-01 3.905622790658396237e-01 0.000000000000000000e+00
4.276081995066576269e-01 2.293662302303713929e-01 0.000000000000000000e+00
5.490897333478463871e-01 4.831316352538348458e-01 0.000000000000000000e+00
1.466327163632630270e-01 5.944519353529951200e-01 0.000000000000000000e+00
5.471507082054424265e-01 4.217759750341079084e-01 0.000000000000000000e+00
6.748165406627665286e-01 4.345979809599818111e-01 2.616902813169166286e-01
1.161109807349767209e-01 4.292807006018352078e-01 0.000000000000000000e+00
4.658366863533723867e-01 2.345964953129787700e-01 3.760522377721012832e-01
-1.712011926893295399e-01 6.858846272733752913e-01 0.000000000000000000e+00
6.086011379342328720e-01 4.187396485320543649e-01 0.000000000000000000e+00
6.613044343611422793e-01 2.900065414457291268e-01 0.000000000000000000e+00
2.247351119919952511e-01 4.733593492302365924e-01 0.000000000000000000e+00
5.927521592991992216e-01 6.780425089241772785e-01 0.000000000000000000e+00
4.955893680873766360e-01 4.789926602475418349e-01 3.119346373149307627e-01
8.048939176790446126e-01 6.068935894911847706e-01 2.389621550354706914e-01
3.630100682594248340e-01 4.172149523940125171e-01 3.765180320946834858e-01
3.825362933740855675e-01 6.713446504703513007e-03 4.486895102755755760e-01
5.243250975243415324e-01 3.857244345451715795e-01 0.000000000000000000e+00
4.092169423044347276e-01 5.780329403045496584e-01 2.881638310114276180e-01
3.313309293338883021e-01 6.530383794673959574e-01 5.337433096210250083e-01
-7.201056751103163123e-03 5.764146642976144541e-01 0.000000000000000000e+00
1.333013203413764280e-01 6.760274153041159195e-01 0.000000000000000000e+00
1.723724390618368574e-01 6.188581510163739807e-01 0.000000000000000000e+00
7.273494108324243257e-01 4.180780612323784506e-01 0.000000000000000000e+00
1.075868499216608098e+00 7.771660266108082471e-01 3.422869150482950040e-01
6.892998315330101100e-01 2.836041670874722698e-01 3.330132702006782797e-01
2.428089104250109598e-01 2.055212081834939530e-01 0.000000000000000000e+00
6.243746067285238510e-01 4.640486337218918678e-01 3.471696084692870166e-01
5.990370265897799751e-01 8.732501758438226958e-02 6.085659081257649428e-01
4.320136777047772769e-01 1.741832959320683827e-01 0.000000000000000000e+00
1.626693579458285965e-01 5.993651346787082224e-01 0.000000000000000000e+00
1.818351360506689218e-01 5.843614492321574927e-01 3.851542977235951071e-01
6.616680986066194592e-01 4.311546669164021406e-01 0.000000000000000000e+00
4.879610660155929702e-01 9.776579319024403247e-02 0.000000000000000000e+00
6.007379178337313164e-01 6.053995677634084194e-01 3.903972070739190059e-01
5.953274136822375162e-01 3.299418111202440107e-01 0.000000000000000000e+00
5.668866898516267128e-01 6.036323141013157922e-01 0.000000000000000000e+00
3.290250625838133658e-01 6.531982464932476473e-01 2.599976248586799432e-01
2.252984701161966363e-01 5.143862987569688405e-01 0.000000000000000000e+00
4.030078670203600666e-01 3.961557736864838031e-01 2.626768342731612416e-01
3.976925624161139483e-01 3.165654618558157996e-01 0.000000000000000000e+00
2.497619010353415714e-01 4.113898487920467639e-01 0.000000000000000000e+00
3.449458374555947060e-01 4.007227758375455640e-01 0.000000000000000000e+00
3.028483378229245293e-01 1.844728204730362586e-01 0.000000000000000000e+00
6.524788040315951942e-01 1.831817066062921828e-01 4.061843377667226918e-01
4.891516490042078225e-01 6.039315489510358459e-01 0.000000000000000000e+00
4.587584073997534873e-01 5.147077154858705761e-01 6.661425895029045030e-01
3.501799852391852541e-01 4.459312240986662568e-01 0.000000000000000000e+00
1.226102897176000184e-01 6.339340899555591102e-01 5.947809691996734927e-01
7.015723203615733539e-01 2.883911971454831136e-01 0.000000000000000000e+00
6.327797665401018179e-01 4.285887410782672768e-01 4.202396704938597960e-01
5.082845704785367014e-01 4.957038140733640574e-01 0.000000000000000000e+00
4.726366526872960439e-01 4.530525090442072411e-01 2.459966884431710188e-01
1.199415046875285107e-01 5.765232056228944968e-01 0.000000000000000000e+00
9.112305926619868046e-01 5.753074445165080597e-01 0.000000000000000000e+00
5.722618317994180304e-01 5.129738448287342045e-01 5.470202453310267776e-01
4.009380902556536341e-02 1.903979114208448342e-01 0.000000000000000000e+00
7.129697391888455416e-01 5.863642213217603594e-01 0.000000000000000000e+00
5.910198438977837254e-01 9.531709217734528616e-01 5.196957640461541406e-01
4.391898892108856423e-01 9.066184707941391530e-01 4.612563971418266462e-01
4.007944312644330376e-01 2.847621574198300198e-01 0.000000000000000000e+00
6.277794671596872433e-01 4.565927476180001721e-01 0.000000000000000000e+00
5.735015638244757019e-01 3.056221351396030128e-01 3.192041182285412226e-01
1.567692482548486144e-01 6.050032020561353363e-01 0.000000000000000000e+00
4.832473313524153768e-01 5.640971318894736353e-01 0.000000000000000000e+00
2.667084801430801289e-01 7.327048660027135618e-01 0.000000000000000000e+00
3.241676030425355570e-01 6.370794880206118727e-01 0.000000000000000000e+00
5.380807212424015828e-01 3.822548263829045334e-01 0.000000000000000000e+00
3.674993129204593423e-01 4.216293355602954707e-01 0.000000000000000000e+00
5.651600969297841948e-01 5.265332876193447031e-01 2.514602002831767269e-01
3.432149350285034206e-01 5.895186348754182237e-01 0.000000000000000000e+00
9.155028196523885553e-01 5.997443137351964326e-01 0.000000000000000000e+00
3.677479992330685565e-01 9.601984160731286133e-01 0.000000000000000000e+00
7.202034351333234108e-01 2.682722659953189481e-01 3.261978570437771285e-01
7.263926303766039538e-01 2.139932433934786937e-01 3.074560570018671779e-01
4.082317325505948613e-01 5.784619870085034865e-01 0.000000000000000000e+00
4.982636846195420688e-01 6.586174224329072180e-01 0.000000000000000000e+00
4.472501385517348993e-01 2.593017268198696268e-01 0.000000000000000000e+00
2.831180696615553938e-01 4.928223084039129454e-01 0.000000000000000000e+00
3.463208650899138874e-01 3.277395567857750436e-01 0.000000000000000000e+00
3.834530405454750213e-01 3.909389011116677359e-01 0.000000000000000000e+00
-7.863712100922359838e-02 6.455300805621138061e-01 0.000000000000000000e+00
1.208511955849145281e-01 5.790382026899859591e-01 0.000000000000000000e+00
1.783877897482415431e-01 6.928013468513913864e-01 0.000000000000000000e+00
8.278813551832477913e-01 6.465690889869935010e-01 6.201077332671778297e-02
5.210780656659700361e-01 4.495986884194282940e-01 1.523061751133767405e-01
1.087297810175461565e-01 1.423665395204865014e-01 0.000000000000000000e+00
7.179747598679232512e-01 3.815477470062527132e-01 5.135776889919416721e-01
4.502901531365168797e-01 3.405876614137769431e-01 0.000000000000000000e+00
1.324842271874850930e-01 3.044471791574150377e-01 3.126084832624625998e-01
1.555292138665111956e-01 6.116755167201242127e-01 0.000000000000000000e+00
8.396497046370857698e-01 6.644908447554229713e-01 0.000000000000000000e+00
3.880347088393205635e-01 1.138064136363003964e-02 3.410351557088124874e-01
4.338367913243246221e-01 6.241196299867715069e-01 3.509920523114049562e-01
1.226813009143230548e-01 3.516396566981947469e-01 3.796725647413674576e-01
8.440431973124939979e-02 6.702077643536136220e-01 0.000000000000000000e+00
8.255743775641499749e-02 5.431832408200739648e-01 0.000000000000000000e+00
4.691252114807016316e-01 3.803896256230778761e-01 0.000000000000000000e+00
7.038485955571287533e-01 3.267495157391233640e-01 0.000000000000000000e+00
6.192287136631604572e-01 6.431711360825989043e-01 0.000000000000000000e+00
5.777564045969342255e-01 9.122951206640839139e-02 0.000000000000000000e+00
2.650142346385269132e-01 2.081768016224359030e-01 6.064131703779029881e-01
4.601229942776208226e-01 4.520295452445997064e-01 0.000000000000000000e+00
3.013486224843620054e-02 5.987392641314362995e-01 0.000000000000000000e+00
7.391616335643494962e-01 5.673780313521692431e-01 1.989400513716460539e-01
4.614821377020034143e-01 4.236182044962549798e-01 0.000000000000000000e+00
2.713746053923358215e-01 4.247061918055585750e-01 0.000000000000000000e+00
3.882240945270141186e-01 6.479381343554717620e-01 0.000000000000000000e+00
2.785892263296263494e-01 7.085252147490379571e-01 0.000000000000000000e+00
7.551878771944462443e-01 4.924219532312692493e-01 0.000000000000000000e+00
1.338780096431153588e-01 1.585239612401363463e-01 2.254996279613205035e-01
4.350349150336390025e-01 3.341287632706444466e-01 4.280932312463621159e-01
2.837995993826256669e-01 3.450309148959447292e-01 4.918314696698008470e-01
2.010552366562075033e-01 4.602109417366937461e-01 0.000000000000000000e+00
2.385523883045502780e-01 6.277420096120323034e-01 0.000000000000000000e+00
8.045950525295948452e-01 6.572111633797674823e-01 1.983063579655037767e-01
4.383647681739876178e-01 6.049434210457175221e-01 0.000000000000000000e+00
4.111520435662386896e-01 4.246505036932848309e-01 0.000000000000000000e+00
9.296755041103991202e-01 2.238660614460229459e-01 3.786102427551378824e-01
2.545304152882297277e-01 5.099716060465113721e-01 0.000000000000000000e+00
9.515599795673290728e-02 4.545415873245262084e-01 5.511467908440840224e-01
6.294066781251677067e-01 5.069141649067223643e-01 8.004411482194515592e-01
-3.136351443786193904e-01 7.598228773606008346e-01 0.000000000000000000e+00
2.670647041375722175e-01 4.770486119146977178e-01 0.000000000000000000e+00
5.744551896102926269e-01 5.973181310453241633e-01 0.000000000000000000e+00
8.428747965425620325e-02 6.370212678177692434e-01 0.000000000000000000e+00
9.573566171826541904e-02 5.435025927757209940e-01 5.117693716422397898e-01
5.826693660608253111e-01 3.048252953931426257e-01 0.000000000000000000e+00
1.416928800454342330e-01 5.866678879654064760e-01 0.000000000000000000e+00
1.225090739735763545e-01 4.644731501638035276e-01 0.000000000000000000e+00
6.808635278565442484e-01 4.471819210422279811e-01 0.000000000000000000e+00
4.670550769790260404e-01 5.445999299630042145e-01 0.000000000000000000e+00
4.249128692454229306e-01 6.494392375089330649e-01 0.000000000000000000e+00
4.735285940459583731e-01 3.932074516583963231e-01 4.629027261529446990e-01
6.657139254902242342e-01 3.635732619622047412e-01 0.000000000000000000e+00
7.113882207672280744e-01 3.020119249446435727e-01 4.186040422839794051e-01
4.348148225334492745e-01 4.607659292635439829e-01 0.000000000000000000e+00
3.109042645333168764e-01 6.038533707221244162e-01 6.035310260791125758e-01
4.494561560114676002e-01 2.564753024164249107e-01 1.303058231853519988e-01
8.845861942468049577e-01 4.767867538408605554e-01 2.430332228335241318e-01
5.258036909749493892e-01 2.155273330476284999e-01 0.000000000000000000e+00
2.627175673874493356e-01 6.948250355386380583e-01 0.000000000000000000e+00
8.716523586766590226e-01 2.296765669235018015e-01 1.673522045583190065e-01
6.307241640299079410e-01 3.928690695934720090e-01 1.703774013689558497e-01
8.120375548230976959e-01 5.004454285450175011e-01 2.189139259853505326e-01
3.500141380959422843e-01 4.586211406498830190e-01 0.000000000000000000e+00
3.858371900947981104e-01 8.083663417676991703e-01 0.000000000000000000e+00
-4.237620039109204484e-01 9.040314189504021769e-01 0.000000000000000000e+00
-1.038557604270466950e-01 5.707850224149194629e-01 0.000000000000000000e+00