POSCAR from GenerativeModels
1.0
5.000000000000000000e+01 0.000000000000000000e+00 0.000000000000000000e+00
0.000000000000000000e+00 5.000000000000000000e+01 0.000000000000000000e+00
0.000000000000000000e+00 0.000000000000000000e+00 5.000000000000000000e+01
Br C Li N Sr
1429 524 551 962 949
Direct
2.496775453216290575e-01 -9.691564878304692598e-02 3.434594738160339222e-01
4.175402588628037148e-01 3.143646086870391931e-01 3.383811725468075515e-01
6.263103580636129042e-01 3.143645602090890390e-01 3.383813405100483673e-01
3.131550999629038601e-01 4.951648570273169403e-01 3.383812532785065441e-01
5.219254992845294705e-01 4.951649040939649637e-01 3.383809988516541245e-01
4.175404950967583906e-01 6.759653444433252334e-01 3.383806991047141333e-01
-1.452926749250947891e-01 -3.664887272933737422e-02 1.253059283766074505e-01
6.347752845623844120e-02 -3.664888048747445143e-02 1.253059313940829700e-01
2.722477179139184966e-01 -3.664889014462783395e-02 1.253059333133959286e-01
2.087701329948808138e-01 3.143646486347056457e-01 3.383810904241212891e-01
4.810178903754428470e-01 -3.664891697795239628e-02 1.253059827378047164e-01
8.985581933572877045e-01 -3.664873830488211970e-02 1.253066944107334435e-01
1.107328442657599554e+00 -3.664899969306283783e-02 1.253062559875485205e-01
-4.090757360432558526e-02 1.441514260883997589e-01 1.253059314931885271e-01
1.678626053073044855e-01 1.441514115336892943e-01 1.253059417368864170e-01
3.766328201562366695e-01 1.441514055498603064e-01 1.253059271506519745e-01
5.854030328230972469e-01 1.441514472509742850e-01 1.253058375643074096e-01
7.941731538869166718e-01 1.441513561883626393e-01 1.253063055918075264e-01
1.002943293281625570e+00 1.441513910914766494e-01 1.253066420807488202e-01
6.897881722175419617e-01 -3.664887075831667340e-02 1.253056775624792341e-01
6.347750018212479362e-02 3.249516764365633081e-01 1.253059753382620711e-01
7.306954966337739776e-01 1.335642387714171264e-01 3.383812902563132496e-01
3.131552305245361989e-01 1.335643440896689127e-01 3.383810944827388423e-01
5.219254772435116818e-01 3.746313432440584457e-01 8.548399029959447004e-01
3.131552788131950482e-01 3.746314066632214779e-01 8.548398750591661432e-01
1.043850088948532900e-01 1.303081154415451984e-02 1.679209723518728936e-01
3.131552035561859793e-01 1.303082434767905036e-02 1.679209739447241612e-01
5.219253422304347412e-01 1.303083414212163893e-02 1.679210853539771509e-01
7.306955470949613174e-01 1.303074735045998273e-02 1.679210733080052365e-01
9.394656757969082062e-01 1.303067611332333481e-02 1.679213839577954892e-01
2.087700786915336615e-01 1.938311006220634070e-01 1.679209912775179447e-01
5.219253504463446935e-01 1.335643889266541484e-01 3.383811498031646381e-01
4.175403074150096927e-01 1.938310884943426626e-01 1.679209681011401001e-01
8.350806571672968470e-01 1.938310476553125050e-01 1.679210265612910424e-01
3.131551735381277735e-01 3.746313826325374796e-01 1.679210127921915430e-01
5.219254203645016243e-01 3.746313705501032043e-01 1.679209502249449648e-01
7.306956546182996615e-01 3.746315620280838976e-01 1.679204129092233544e-01
4.175403028912134662e-01 5.554317508204664744e-01 1.679207953064073833e-01
6.263102825152878639e-01 5.554316034099512356e-01 1.679218279354482146e-01
5.219255304719230271e-01 7.362319388871780834e-01 1.679208327362250175e-01
1.043849611021898799e-01 1.335643361645160454e-01 3.383811193899582404e-01
6.263103716666050813e-01 1.938310853886285601e-01 1.679213062988970107e-01
2.722476912084322853e-01 3.249516653375518205e-01 1.253060080700946766e-01
4.810179923299039428e-01 3.249516902940153829e-01 1.253057210888014750e-01
6.897881357920110368e-01 3.249517263643895149e-01 1.253058400616340051e-01
5.854031592381138127e-01 3.852185290465311440e-01 4.515220556003754493e-02
7.941731048371599710e-01 3.852186283109727549e-01 4.515464167632288195e-02
1.002943428533006553e+00 3.852183993116563010e-01 4.515439902808136147e-02
-4.090759687562368907e-02 3.852184582014968606e-01 4.515420137955812596e-02
2.722477111498276536e-01 5.660186896525458700e-01 4.515483926019515232e-02
4.810178545086279400e-01 5.660187153022807616e-01 4.515485213818865723e-02
6.897881605582918407e-01 5.660185401288352347e-01 4.515590567861305776e-02
8.985581676780644012e-01 5.660186085806588885e-01 4.515797598979671285e-02
3.766327606159057817e-01 3.852184014474119844e-01 4.515496070910927223e-02
6.347747842474599222e-02 5.660187293592993107e-01 4.515438919137519658e-02
2.722477215704888764e-01 -1.571823818697893893e-01 4.515426716587981476e-02
4.810179219612284451e-01 -1.571824034357231503e-01 4.515418263635884166e-02
6.897880514957432929e-01 -1.571824292650104982e-01 4.515483082459896547e-02
8.985581964174735869e-01 -1.571825757560623427e-01 4.515514427713265833e-02
6.347752341298729117e-02 8.388463871375780034e-02 2.156143535000609179e-01
2.722477024309746252e-01 8.388461770217321700e-02 2.156143675049713437e-01
4.810179227435089633e-01 8.388467917309162802e-02 2.156143164545204216e-01
6.897881735523968549e-01 8.388472705699590026e-02 2.156141818467983695e-01
6.347751061164962072e-02 -1.571824424210803706e-01 4.515407344771685261e-02
1.678626291743439136e-01 3.852184638832820696e-01 4.515417757447814928e-02
-1.452926785020799416e-01 2.044181900023885612e-01 4.515413395583852546e-02
1.107328224860044008e+00 2.044179684887627024e-01 4.516104137832679943e-02
8.985580881439111378e-01 3.249516779605489125e-01 1.253073223544536041e-01
1.678626046850977827e-01 5.057520546640629222e-01 1.253057588284093304e-01
3.766328513458293559e-01 5.057520971651617847e-01 1.253055232017420695e-01
5.854029359559786982e-01 5.057519832204674382e-01 1.253063263856163678e-01
7.941733140972098148e-01 5.057519707896349637e-01 1.253055388164429906e-01
2.722475496716223464e-01 6.865522632166927153e-01 1.253063175702897880e-01
4.810178854763906831e-01 6.865521087502969300e-01 1.253068662725895510e-01
6.897881590851462352e-01 6.865522084295779814e-01 1.253060330450475601e-01
-4.090756310633909820e-02 2.361787520094366447e-02 4.515423231634084489e-02
1.678626155051971824e-01 2.361789320016094776e-02 4.515420459212429738e-02
3.766327837472628337e-01 2.361786786111346945e-02 4.515433152775526204e-02
5.854029990835725172e-01 2.361783258984937947e-02 4.515421223027035053e-02
7.941731372101985542e-01 2.361785181693231914e-02 4.515498905393942192e-02
1.002943613269830170e+00 2.361805830341632759e-02 4.515000480047001025e-02
6.347751122878979302e-02 2.044181662960331547e-01 4.515421202463966444e-02
2.722477489661744299e-01 2.044181831457524134e-01 4.515408103689064201e-02
4.810178494229310764e-01 2.044182009827464064e-01 4.515459335779850591e-02
6.897880460721087514e-01 2.044181417049788507e-01 4.515488485830922855e-02
8.985584650043086929e-01 2.044182783383959312e-01 4.515090372364412297e-02
4.175401059350445920e-01 -4.723583784396979263e-02 6.843798751328304952e-01
8.985580982205434442e-01 8.388462851169777024e-02 2.156150972507990815e-01
5.219252971171252087e-01 1.335643301577681408e-01 6.843798103272870081e-01
3.131551007239493645e-01 4.951646632263577152e-01 6.843799609445295751e-01
7.306958431715034896e-01 6.156985741517763122e-01 2.446601438577913207e-03
1.043849853028271518e-01 6.156983989708012528e-01 2.551224261824727637e-03
1.043849967221940206e-01 -1.075027183971084266e-01 2.538532540011858175e-03
3.131552127140670438e-01 -1.075027077849938228e-01 2.538275904790622626e-03
5.219253127759944100e-01 -1.075027131991163759e-01 2.550202927210180708e-03
7.306954804814214111e-01 -1.075028468200102394e-01 2.550938417618239893e-03
9.394657693324066638e-01 -1.075026529316652629e-01 2.533260023954494490e-03
1.043850108976016600e-01 1.335643384588404703e-01 1.729993288089403392e-01
5.219252135672409754e-01 6.156983852087262177e-01 2.582284823250257690e-03
3.131551764720189035e-01 1.335643452203661707e-01 1.729993436497617443e-01
7.306956160264648226e-01 1.335643092508532470e-01 1.729992232466352753e-01
9.394656317561088654e-01 1.335643585511885056e-01 1.729999585085723601e-01
-1.043851682505743256e-01 1.335643251975833223e-01 1.729993509182085887e-01
2.087700733476707815e-01 3.143646380924196571e-01 1.729993480991247057e-01
4.175403151958995696e-01 3.143646586458194170e-01 1.729992588279696264e-01
6.263104228192742928e-01 3.143646721821388712e-01 1.729994543418008623e-01
8.350806682721045870e-01 3.143645907979494836e-01 1.729994334107975984e-01
1.043851004545862882e+00 3.143648271107343239e-01 1.729983405037808786e-01
5.219253572847903921e-01 1.335642899457510913e-01 1.729994189240537106e-01
-1.020901293445554016e-07 3.143646672703523937e-01 1.729992950786392869e-01
3.131552713473315097e-01 6.156984676224215303e-01 2.531007388595245440e-03
8.350807228090928458e-01 4.348979715311600547e-01 2.555010990131925154e-03
3.766328633881114718e-01 3.379825785131321814e-01 3.994245775575416824e-01
5.854029124532744710e-01 3.379825290892889411e-01 3.994247605901523612e-01
-1.000257397437817400e-07 7.329758710070870265e-02 2.539055516783596082e-03
2.087700966855742801e-01 7.329758895714760802e-02 2.539001924357240422e-03
4.175402380196777674e-01 7.329753657826720836e-02 2.545233343629936616e-03
6.263105567814385433e-01 7.329763429429661525e-02 2.522643202373474509e-03
8.350806571664604050e-01 7.329778035528694557e-02 2.542758562952985441e-03
1.043850671056139490e+00 7.329765885641846557e-02 2.606203963478297223e-03
-4.634634471328907932e-08 4.348981433344875080e-01 2.544379943906215167e-03
-2.087703018072649408e-01 7.329757233589638543e-02 2.539238400459901870e-03
3.131551845265619916e-01 2.540978712922648541e-01 2.540339698943076124e-03
5.219253956600927724e-01 2.540979314217360896e-01 2.532796362733183253e-03
7.306956552534998872e-01 2.540978952511547262e-01 2.523886465521827174e-03
9.394656837376307301e-01 2.540979094875787658e-01 2.571322283218828615e-03
-1.043851800676799668e-01 2.540978659951509955e-01 2.541133357585480430e-03
2.087700688710320551e-01 4.348981574732356248e-01 2.541962126661790472e-03
4.175403138296400751e-01 4.348981653526511892e-01 2.536819679804067258e-03
6.263103647398909901e-01 4.348981002560305398e-01 2.572079531760947026e-03
1.043849990178286613e-01 2.540978769657460945e-01 2.539224907722088982e-03
-2.087702911928842053e-01 3.143647000533773550e-01 1.729992472360613320e-01
2.087700878291572637e-01 -4.723594890468274521e-02 1.729993310941393969e-01
4.175403147476254850e-01 -4.723593153407516093e-02 1.729993019311277802e-01
3.131551756118799990e-01 2.540979065377059753e-01 5.139196250511894881e-01
5.219253675531652092e-01 2.540978219318019149e-01 5.139196710757338860e-01
7.306955310418552507e-01 2.540979680902186733e-01 5.139196346942012106e-01
1.043849929330643855e-01 2.540979052417364770e-01 5.139196224130236912e-01
4.175403422775652018e-01 4.348980943152229162e-01 5.139196374463268491e-01
6.263103704826155083e-01 4.348980814136672035e-01 5.139197869839180477e-01
8.350809349892395206e-01 4.348982219338780042e-01 5.139192224128071862e-01
2.087700052795088690e-01 4.348980964321850218e-01 5.139196917862561831e-01
6.263105173079754895e-01 -1.677694426569673325e-01 3.434594607227976493e-01
-6.404663432004675384e-08 4.348981222012063830e-01 5.139196699795762768e-01
6.263103227206083812e-01 7.329771073094951128e-02 5.139197619493064417e-01
3.131551709836686292e-01 -1.075026634714279783e-01 5.139196546744509986e-01
5.219252272325721753e-01 -1.075026923943323554e-01 5.139197355007156798e-01
4.175400781799954997e-01 3.143646805298619951e-01 6.843798543560108971e-01
6.263105788943795771e-01 3.143647168106248335e-01 6.843796535061222874e-01
2.087701412059219941e-01 3.143646017303879936e-01 6.843798106752521093e-01
5.219256047280375066e-01 4.951649802447694038e-01 6.843795919305094566e-01
7.306954190961001405e-01 4.951649029002591629e-01 6.843799410854561893e-01
4.175403448533848705e-01 7.329758769249815342e-02 5.139195999802440573e-01
4.175402871450761277e-01 -1.677694421602794195e-01 3.434594990662106495e-01
2.087701268002541133e-01 -1.677695181585605877e-01 3.434594385551953399e-01
7.306955011291209612e-01 1.303070938187689265e-02 3.434596013147415694e-01
6.263104699369187456e-01 -4.723587420877622955e-02 1.729994228924659483e-01
8.350805811959440828e-01 -4.723603806049813530e-02 1.729996951586206810e-01
1.043850159052232274e-01 -2.280361911481545434e-01 1.729993850152114487e-01
3.131551862450039359e-01 -2.280361848895700594e-01 1.729994104505745145e-01
5.219253426971068865e-01 -2.280362096625132284e-01 1.729994544925171629e-01
7.306956674661850837e-01 -2.280361239750808844e-01 1.729991874675671781e-01
2.087700664384207760e-01 1.938311316073814683e-01 3.434594775229880548e-01
4.175402410456848790e-01 1.938310993757790257e-01 3.434595104316829350e-01
6.263106013871810873e-01 1.938311369039399656e-01 3.434592928950003232e-01
8.350805591456975652e-01 1.938312282838439704e-01 3.434596809125977090e-01
-1.122241272692710828e-07 1.938311212534069017e-01 3.434594833662538149e-01
3.131551368359002385e-01 3.746314171888769917e-01 3.434595008877049382e-01
5.219254491602867141e-01 3.746314771783512132e-01 3.434593319658590382e-01
7.306955707239152220e-01 3.746313715866678717e-01 3.434595645437708011e-01
9.394658595997111838e-01 3.746315517385606086e-01 3.434591764557562987e-01
1.043850046048296343e-01 3.746314122445136841e-01 3.434594860423424434e-01
-1.043851704497327781e-01 3.746313784098530553e-01 3.434595301712610738e-01
3.131551816554393741e-01 1.303079522771798462e-02 3.434594742613207852e-01
5.219253887160921757e-01 1.303079296530129834e-02 3.434594668354400415e-01
1.043847883619825612e-01 4.951648903131789514e-01 6.843798139595765884e-01
1.678625909931784344e-01 2.646849639027974432e-01 2.156143514112913162e-01
3.766327819169144608e-01 2.646849454553846237e-01 2.156143802061224746e-01
5.854030524140710900e-01 2.646849390144462300e-01 2.156142629115544995e-01
7.716030069102088884e-01 -2.044183173636621442e-01 1.119559395457479789e-01
1.452924768528915944e-01 3.664877868452357662e-02 2.824159926065415993e-01
3.540626446996764098e-01 3.664873646353761921e-02 2.824160140211038339e-01
5.628327929468929236e-01 3.664871001286720137e-02 2.824160808587760640e-01
7.716032202297040676e-01 3.664895712429227376e-02 2.824155934866892648e-01
2.496776049269650022e-01 2.174490407745790221e-01 2.824159822262668484e-01
4.584477220230161465e-01 2.174490624544444806e-01 2.824160377857056203e-01
6.672179261192237032e-01 2.174490983936060440e-01 2.824160015523634604e-01
5.628328165638545322e-01 -2.044182761941036874e-01 1.119559721070125802e-01
8.759881765963772882e-01 2.174489033971281071e-01 2.824160296547280624e-01
3.540626561439100262e-01 3.982493442653903815e-01 2.824160188603412336e-01
5.628329451063295297e-01 3.982494350272817729e-01 2.824157778639205807e-01
7.716029549853417047e-01 3.982494626553534367e-01 2.824161154527476958e-01
9.803732250457670716e-01 3.982493626804307629e-01 2.824160617985408961e-01
1.452924817493586318e-01 3.982493858118975605e-01 2.824159477064450141e-01
-6.347767123905451170e-02 3.982493519469237908e-01 2.824160057630620280e-01
2.496775973407304172e-01 -1.441515543579441894e-01 2.824159705100043882e-01
4.584477417302371682e-01 -1.441515142176569286e-01 2.824160391210663867e-01
4.090737592722445276e-02 2.174490251004393970e-01 2.824159986659104948e-01
6.672177925835268697e-01 -1.441516493788297937e-01 2.824162103302110260e-01
3.540626311627617651e-01 -2.044182640180213228e-01 1.119559518951762783e-01
1.452925383954210836e-01 5.187828362774297153e-01 1.119559925254967891e-01
6.672179672761194835e-01 -2.361791309483949816e-02 1.119558372044618666e-01
8.759880238965017663e-01 -2.361792617055099783e-02 1.119566819152245374e-01
1.452924812213189643e-01 1.571822847607377838e-01 1.119558368404518361e-01
3.540626636403975680e-01 1.571822844130646435e-01 1.119558586157520241e-01
5.628327929111631711e-01 1.571822566477892036e-01 1.119561175541978482e-01
7.716031026391918513e-01 1.571822341300410097e-01 1.119555916133799095e-01
9.803732369556028559e-01 1.571824026018838749e-01 1.119557996593585902e-01
-6.347775481310044543e-02 1.571823007301360320e-01 1.119557933209133216e-01
1.452924816515373807e-01 -2.044182754120149881e-01 1.119558670972645997e-01
2.496775084089959684e-01 3.379825734555712002e-01 1.119559404507198819e-01
6.672179448567814308e-01 3.379826571161295146e-01 1.119557064035646976e-01
8.759879674864398114e-01 3.379824879899344658e-01 1.119572670134277304e-01
1.084758479491292560e+00 3.379824724398863278e-01 1.119548634920426028e-01
4.090739036595598954e-02 3.379826102141268440e-01 1.119557999649556795e-01
3.540626633696362102e-01 5.187829430566676114e-01 1.119555935670519392e-01
5.628327843365857897e-01 5.187828523922026758e-01 1.119562599073435638e-01
7.716029346022382773e-01 5.187827537953613177e-01 1.119569608883817513e-01
9.803731603252080484e-01 5.187828461451734485e-01 1.119563475586458495e-01
4.584478023708408179e-01 3.379825639287383776e-01 1.119557570357811171e-01
3.540626347729752821e-01 -3.249517527029980868e-01 2.824161144516711963e-01
5.628328842098914153e-01 -3.249516907349435102e-01 2.824161222974761465e-01
2.496775958602005796e-01 9.691554232794569179e-02 4.528761159153856242e-01
4.584476887427926250e-01 2.174490086791108223e-01 2.289646010324652148e-01
6.672181073019315400e-01 2.174490455202140182e-01 2.289641260718286719e-01
8.759879222501218976e-01 2.174491718264121298e-01 2.289651247515452903e-01
3.540627203807717449e-01 3.982493395694314264e-01 2.289644247391332543e-01
5.628326735984495732e-01 3.982493490920366308e-01 2.289647879696864730e-01
7.716032626866868860e-01 3.982491884046449049e-01 2.289641081217061447e-01
4.584477335611816251e-01 5.790496567768471659e-01 2.289645207316011177e-01
6.672178586320295368e-01 5.790497982255338183e-01 2.289643106781407700e-01
2.496775791835696701e-01 2.174490680815755472e-01 2.289644472797192909e-01
5.628327900434829667e-01 7.598499210164686435e-01 2.289646863327322313e-01
5.628329027634296766e-01 1.571823491505129344e-01 3.994245726113498929e-01
7.716028255025554339e-01 1.571822507399708024e-01 3.994250003687164763e-01
6.347751143683437458e-02 3.664875831554385843e-02 1.011193489664327511e-01
2.722477141985978344e-01 3.664877569616744463e-02 1.011193401939920328e-01
4.810178749841505508e-01 3.664878825272319118e-02 1.011194380501853618e-01
6.897880529600506350e-01 3.664871745425422184e-02 1.011195628731157981e-01
8.985583985637021209e-01 3.664886388240206488e-02 1.011185085252442883e-01
1.107328546732600394e+00 3.664875282415349517e-02 1.011189988886898178e-01
3.540627309038205661e-01 1.571823109061240287e-01 3.994245637610108202e-01
9.803734354131331541e-01 3.664884599011108274e-02 2.289637352385738012e-01
7.716029053916504399e-01 3.664874763805410496e-02 2.289648671137380354e-01
5.628328661170308722e-01 3.664878779214938986e-02 2.289644684928165697e-01
4.584477091350062650e-01 9.691546491509672734e-02 4.528761796452263622e-01
6.672180360799515597e-01 9.691548011331789503e-02 4.528760466936085916e-01
3.540627227760884121e-01 2.777158085199150639e-01 4.528761070733040572e-01
5.628329466308358286e-01 2.777159535138787883e-01 4.528759985882528927e-01
7.716028287583978074e-01 2.777157821732529341e-01 4.528764972455291415e-01
1.452923957452969261e-01 2.777158507813866084e-01 4.528761222895800187e-01
3.540627195390972370e-01 -8.388479851997746040e-02 4.528760997732284577e-01
5.628328594454332645e-01 -8.388469578475885036e-02 4.528761648633530812e-01
3.540627757875004500e-01 1.571823089558828934e-01 6.233362437893044117e-01
5.628328448804869044e-01 1.571824974276183062e-01 6.233362699513852467e-01
4.584476892584242180e-01 3.379825524552239058e-01 6.233363625769495764e-01
6.672178255824916526e-01 3.379824514650813794e-01 6.233364633009574884e-01
2.496776090182365460e-01 3.379826986970887459e-01 6.233362357843478252e-01
4.584476471126828767e-01 -2.361805683885765880e-02 6.233363324945425665e-01
4.584476059767990663e-01 2.174492749140311820e-01 7.937964663014223099e-01
5.628328354330778271e-01 3.982494092542260278e-01 7.937964354065814021e-01
3.540628182169191507e-01 3.982491542406913498e-01 7.937964823444196849e-01
1.452924552867395636e-01 3.664877684811290726e-02 2.289644620973146083e-01
3.540626854072246310e-01 3.664881286248275472e-02 2.289644364718763370e-01
4.584477523212142636e-01 -2.361796301810063781e-02 1.119558927352720945e-01
2.496775727319520688e-01 -2.361799923392210107e-02 1.119558422034581807e-01
4.090737703401380737e-02 -2.361799141826862597e-02 1.119558427107298498e-01
7.716028540448863771e-01 6.393164796340654599e-01 5.850553485401471798e-02
6.897878975447158112e-01 3.249518168953762220e-01 3.860747358571434695e-01
8.985581641493206595e-01 3.249515493609610450e-01 3.860748399306334067e-01
6.347747021796362743e-02 3.249517324902126414e-01 3.860744870434216769e-01
2.722477083824779709e-01 -3.664885720553372889e-02 3.860745064203252586e-01
4.810178604258190660e-01 -3.664897049620183950e-02 3.860745286528403097e-01
6.897881824213998314e-01 -3.664897320092590227e-02 3.860743749316742912e-01
3.766328825167450933e-01 -2.174491165672171877e-01 3.860744944165992454e-01
2.722478633390726932e-01 2.044182584745248554e-01 5.565345990360902606e-01
4.810180221894269637e-01 3.249517047707851103e-01 3.860744272167976887e-01
4.810178670981415383e-01 2.044182537779743458e-01 5.565346961828069317e-01
3.766330058761064303e-01 3.852183684069722669e-01 5.565346461850694260e-01
5.854027118479568914e-01 3.852183588967317274e-01 5.565349863022258647e-01
7.941734594411993253e-01 3.852184778065869120e-01 5.565343267591524867e-01
1.678625205835035661e-01 3.852184840031976365e-01 5.565346525780565656e-01
3.766328692859391980e-01 2.361792319834424628e-02 5.565346289049850625e-01
5.854028247711715593e-01 2.361767140662080974e-02 5.565348042675750673e-01
3.766326676046438671e-01 2.646849211885603514e-01 7.269948668830593652e-01
5.854031530537300299e-01 2.646850511981202470e-01 7.269946710567046777e-01
6.897879826656226898e-01 2.044183693758656606e-01 5.565347256806834064e-01
2.722477165098128316e-01 3.249516936148930113e-01 3.860745119591724173e-01
7.941732625386181965e-01 1.441513180815708339e-01 3.860744089808724189e-01
5.854028627643270699e-01 1.441514563799701776e-01 3.860746620463791356e-01
7.941732030587231872e-01 2.646848861106868012e-01 2.156144586592064760e-01
1.002943488614870704e+00 2.646851720333082136e-01 2.156137881958918312e-01
-4.090753348361494957e-02 2.646849577346245264e-01 2.156143730884432230e-01
2.722476586873410209e-01 4.454851983585556008e-01 2.156144513268535012e-01
4.810180583845404811e-01 4.454852868305864688e-01 2.156140148955481006e-01
6.897879606488337423e-01 4.454852372969541618e-01 2.156147788337833826e-01
8.985582811624024391e-01 4.454851424347193722e-01 2.156145855183256577e-01
1.107328663627591192e+00 4.454851237056220992e-01 2.156138588938495693e-01
6.347757628808800567e-02 4.454851677653005049e-01 2.156144802609670785e-01
-1.452926787859629698e-01 4.454851882789279682e-01 2.156143999717088922e-01
1.678626311185469899e-01 -9.691560241632175832e-02 2.156143796169947557e-01
3.766327593518648542e-01 -9.691568215167033207e-02 2.156143987326044620e-01
5.854030066792753617e-01 -9.691571351546382496e-02 2.156142999063264398e-01
7.941732212292016424e-01 -9.691558667962672791e-02 2.156143142152782133e-01
2.722477642880433146e-01 -2.777159155879825869e-01 2.156143472170207187e-01
4.810179101774120780e-01 -2.777158953323714541e-01 2.156144401426366985e-01
6.897880041111815741e-01 -2.777160860751939353e-01 2.156144284587729609e-01
1.678626270309026003e-01 1.441514150674965133e-01 3.860745012240498486e-01
3.766328596883339319e-01 1.441514554556191652e-01 3.860744714326297955e-01
4.810178721773873400e-01 4.454853560205966345e-01 7.269947617588199407e-01
6.897881968146988285e-01 1.571823629160830904e-01 3.994244868740114418e-01
6.897880483717128142e-01 4.454851334183737577e-01 7.269949131358669492e-01
4.810177977376053349e-01 8.388462209841039685e-02 7.269948557655621091e-01
9.803730820949893010e-01 -8.388477235629038242e-02 5.850694639579034212e-02
4.090736763167528850e-02 9.691553014035608760e-02 5.850430961241039757e-02
2.496775726253902816e-01 9.691554011468843377e-02 5.850428877401859379e-02
4.584477215125102867e-01 9.691555468527879302e-02 5.850447774288539127e-02
6.672179096892751904e-01 9.691551636668727099e-02 5.850462463676267544e-02
8.759883405039841087e-01 9.691543924849195524e-02 5.850210656357836964e-02
1.084758037571426081e+00 9.691556273530332888e-02 5.850941461743640326e-02
1.452924711109800093e-01 2.777158137606550170e-01 5.850432683311249799e-02
7.716031918829457936e-01 -8.388472707097938130e-02 5.850294116761096952e-02
3.540626871234273665e-01 2.777158212567554241e-01 5.850424855807596913e-02
7.716031141131992621e-01 2.777159807750062548e-01 5.850314757638712393e-02
9.803731043736386708e-01 2.777157137383072794e-01 5.850716580453615978e-02
2.496775964507943479e-01 4.585161084047559288e-01 5.850426760915236613e-02
4.584478110590724520e-01 4.585161276091649363e-01 5.850404972710652324e-02
6.672177339426648146e-01 4.585160164929543147e-01 5.850708280430775426e-02
8.759883412333564490e-01 4.585159281292777722e-01 5.850311697111847120e-02
3.540628640242581282e-01 6.393163517390451078e-01 5.850396060920012159e-02
5.628327967275016386e-01 6.393163740441729637e-01 5.850532738459732207e-02
5.628328687303297828e-01 2.777158863984568460e-01 5.850404351872610237e-02
5.628328487857664486e-01 -8.388475127311087465e-02 5.850429446202229378e-02
3.540626344504488321e-01 -8.388478233635461578e-02 5.850434380787716132e-02
1.452924614905075906e-01 -8.388476602111566427e-02 5.850430297388928974e-02
6.347752436874913584e-02 8.388466535719601991e-02 2.957660882480132591e-01
2.722477146596217201e-01 8.388467878349098461e-02 2.957660862710314031e-01
4.810179052974333236e-01 8.388462055570265752e-02 2.957661103189194729e-01
6.897879929885297745e-01 8.388456204231985180e-02 2.957663076515695266e-01
8.985584815333086395e-01 8.388456362072518879e-02 2.957656315098028954e-01
1.678626231298087357e-01 2.646848843342383129e-01 2.957661101568867523e-01
3.766328765983445459e-01 2.646849249848413077e-01 2.957660427633913569e-01
5.854028464371836549e-01 2.646848744324337699e-01 2.957663795937108264e-01
7.941733796595303874e-01 2.646850130655808431e-01 2.957655936579527967e-01
2.722476453645270578e-01 4.454852488963690349e-01 2.957660923623481875e-01
4.810180099369343876e-01 4.454851923765329458e-01 2.957660249225126381e-01
6.897879493594522016e-01 4.454853461953575122e-01 2.957662151125821648e-01
3.766330071034931226e-01 6.262855188337160817e-01 2.957658897473672832e-01
5.854030818999439445e-01 6.262855587456909179e-01 2.957659631696967772e-01
4.810180057409793042e-01 8.070857183398080226e-01 2.957662218346444050e-01
2.722477253660775531e-01 2.044181378978764396e-01 4.662262442727331813e-01
4.810179949214521411e-01 2.044182663985166792e-01 4.662261466272827892e-01
6.897878461786158821e-01 2.044180379048985419e-01 4.662266054025575035e-01
-6.347772287025564564e-02 -8.388476906468742000e-02 5.850431430055147430e-02
2.722478322226089542e-01 4.454851428682417014e-01 7.269948328803469417e-01
4.810179307229967560e-01 1.571823383376125260e-01 3.994245775575416268e-01
2.722476952963894803e-01 1.571822801656256874e-01 3.994246253991666773e-01
4.810180210871884965e-01 7.598499057869324558e-01 2.289642693266975837e-01
3.540626276335684386e-01 -3.664892614357150719e-02 2.540736665119776999e-03
5.628328486664070374e-01 -3.664886268133884378e-02 2.538555967829011877e-03
7.716031480404933474e-01 -3.664873308958041531e-02 2.518050266738135028e-03
9.803732369374382749e-01 -3.664897387201122847e-02 2.548051295378536262e-03
4.090737360095991759e-02 1.441514089584039204e-01 2.539110201494568664e-03
2.496775632371198150e-01 1.441514083455609496e-01 2.539292980052464815e-03
4.584477532278833922e-01 1.441514436781655140e-01 2.538155291100069669e-03
6.672180375713593348e-01 1.441514976410333271e-01 2.519575437172617578e-03
1.452924689497774591e-01 -3.664887973866977344e-02 2.539110201495233064e-03
8.759879420699273611e-01 1.441513149444872688e-01 2.606470421669788116e-03
-1.678628117435931599e-01 1.441513967861959566e-01 2.540691761844488406e-03
1.452924127550316580e-01 3.249516931331262182e-01 2.540736665113204566e-03
3.540626888314347687e-01 3.249516787641636983e-01 2.538155291089991793e-03
5.628328768061332532e-01 3.249517129327925136e-01 2.535292337887165917e-03
7.716029858032256161e-01 3.249515902265999734e-01 2.570713371186875585e-03
9.803732690777837711e-01 3.249518042741054713e-01 2.517762770850485651e-03
-6.347769824727052257e-02 3.249517120091075517e-01 2.540516567929195901e-03
2.496775782313566117e-01 5.057519763701404658e-01 2.538555967817256089e-03
1.084758619769140342e+00 1.441513657306366381e-01 2.437224806184635963e-03
4.584478777363871216e-01 5.057520215794806262e-01 2.519575437150621284e-03
-6.347772961275795212e-02 -3.664888427947209787e-02 2.539051147151840260e-03
3.540626796226817863e-01 2.044181833901555778e-01 4.662262105160115966e-01
4.584477260151142430e-01 2.361779475012866156e-02 5.565346852656528620e-01
6.672179407423649566e-01 2.361797999597010575e-02 5.565346643023019180e-01
4.584478621723175884e-01 2.646849966345959371e-01 7.269947410782552355e-01
6.672179312507082738e-01 2.646849029565132572e-01 7.269948570018636147e-01
5.628328155839135150e-01 4.454852268453559083e-01 7.269948570018636147e-01
7.716029556346393203e-01 4.454851741431699041e-01 7.269949347967095132e-01
3.540628515747674676e-01 4.454852598616820258e-01 7.269947224111125150e-01
5.628329778391124583e-01 8.388479406926674375e-02 7.269947224111125150e-01
5.628328913034954528e-01 2.044183033107152825e-01 4.662261481712313693e-01
1.452924928295603602e-01 8.388465984637843986e-02 2.957660913186846430e-01
5.628328063393820413e-01 8.388461629501869909e-02 2.957661490711906427e-01
7.716029537366537738e-01 8.388452541759956749e-02 2.957662727051518226e-01
2.496775417957013687e-01 2.646848942125086812e-01 2.957661335040333572e-01
4.584477511366470415e-01 2.646849325281217524e-01 2.957660903351124748e-01