POSCAR from GenerativeModels
1.0
2.000000000000000000e+01 0.000000000000000000e+00 0.000000000000000000e+00
0.000000000000000000e+00 2.000000000000000000e+01 0.000000000000000000e+00
0.000000000000000000e+00 0.000000000000000000e+00 2.000000000000000000e+01
Al As At B Ba Be Br C Ca Cd Cl Co Cr Cs Cu Dy Eu F Fe Ga Gd Ge H Hg Ho I Ir K Kr La Li Md Mg Mn Mo N Na Ni No Np O Os P Pd Pm Rb Rh Ru S Sb Sc Se Si Sm Sn Sr Tc Te Ti Tl U V W Xe Y Yb Zn
8 8 3 13 3 7 7 13 9 11 41 11 5 1 3 1 3 27 6 6 2 5 192 4 1 4 1 11 30 1 42 2 23 14 5 12 29 8 1 1 26 1 9 6 1 7 3 3 21 3 25 17 23 1 1 3 3 4 14 1 1 29 2 14 1 1 25
Direct
9.389204783789074638e-01 2.587675588210566202e-01 1.269564212023723826e-01
1.440344519442681159e-01 5.842502191416120150e-01 4.843277506196990156e-01
7.232993999858315926e-01 3.622371122839234125e-01 2.344862532141533951e-01
4.984338558885205162e-01 4.473882601573748730e-01 0.000000000000000000e+00
6.025687641123196325e-01 2.966168653658955989e-01 3.667931262578256746e-01
3.723862173011580623e-01 4.807570094805649896e-01 0.000000000000000000e+00
2.955093295019597388e-01 2.868032622519880448e-01 0.000000000000000000e+00
2.773966227400669338e-01 3.572623596101032195e-01 0.000000000000000000e+00
6.088043959722950760e-01 3.679784811542823331e-01 0.000000000000000000e+00
5.576148583934718017e-01 1.827064171910844914e-01 0.000000000000000000e+00
6.278862068320559819e-01 3.459962548394437398e-01 0.000000000000000000e+00
1.592316890408218555e-01 2.084009476891480750e-01 4.161182762166693028e-01
4.528002962511401552e-01 1.515689622193913122e-01 0.000000000000000000e+00
5.334242644098753372e-01 1.625769299182120431e-01 0.000000000000000000e+00
7.030185446361900681e-01 6.080929634543613682e-01 0.000000000000000000e+00
4.261935704945110093e-01 8.150961930711482228e-01 0.000000000000000000e+00
4.980125316221690746e-01 2.991426519361165548e-01 0.000000000000000000e+00
3.279048113755795857e-01 3.789722198713587620e-01 7.753274613811766969e-01
1.035300350001987502e+00 5.426028920084382534e-01 0.000000000000000000e+00
2.951224691519663823e-01 6.485046314271446510e-01 2.001808409474199468e-01
3.844968675881967890e-01 5.875308457271810614e-01 0.000000000000000000e+00
3.403170901877365928e-01 4.498006781020676970e-01 0.000000000000000000e+00
5.085834908510050711e-01 5.238087319615621906e-01 0.000000000000000000e+00
9.508956296543294995e-01 4.940359734871806463e-01 3.793674368265219643e-01
8.640059317851895848e-01 3.932562246211537271e-01 2.622422263412683696e-01
7.284666702467790245e-01 3.449815882609341688e-02 0.000000000000000000e+00
9.085475519984820281e-01 5.475050432360276664e-01 0.000000000000000000e+00
5.269161931237315022e-01 3.634164176616883069e-01 0.000000000000000000e+00
3.494206631593401724e-01 3.284886030490485886e-01 7.054935643122890454e-01
7.187902053967497595e-01 1.001102077415815250e-01 4.127376747406095170e-01
5.206797832245512181e-01 3.413543100363840566e-01 3.087733046961034233e-01
4.374840419212522313e-01 3.452181144221495579e-01 2.828004745888321736e-01
3.073188640508615066e-01 1.911029909887930200e-01 0.000000000000000000e+00
5.484928834368635320e-01 4.145103804739580511e-02 4.039970136266105571e-01
5.139258544120824945e-01 4.989012718057097562e-01 0.000000000000000000e+00
4.306564910738722718e-01 1.646893706948953096e-01 0.000000000000000000e+00
6.371302122810416080e-01 5.642926027106779374e-01 3.773065770704008282e-01
3.771564755268748126e-01 3.187016042294754659e-01 1.390352244099901657e-01
6.656077445888834987e-01 3.818948861009422435e-01 5.108926590218961783e-01
6.278159019812548092e-01 1.444293663893263524e-01 2.867058560583350957e-01
5.435422904302893432e-01 4.095594286231670766e-01 2.944404262443360842e-01
8.802321173071933069e-01 2.146948922904396984e-01 4.418135250974191131e-01
5.793446561161114117e-01 3.613906688143908585e-02 0.000000000000000000e+00
6.744803530372790457e-01 5.423694513616558188e-01 6.801207440056327158e-01
2.282767517633622623e-01 4.713667109281237666e-01 4.799514932334680850e-01
3.855887232776201712e-01 2.687681513730892924e-01 4.064575205229756794e-01
5.700528526211139368e-01 4.470217438812036370e-01 2.324646525873643732e-01
4.747738375381835851e-01 4.852538525165688288e-01 0.000000000000000000e+00
7.957779632498549471e-01 4.564983623347189656e-01 5.945255970878919882e-01
5.260141384691844335e-01 6.529098020997372576e-01 2.230513769476845098e-01
1.463603596690266073e-01 6.676552814410285919e-01 0.000000000000000000e+00
6.758366297911496678e-01 -1.077795645875712083e-02 3.451438813524929650e-01
2.057356717342992969e-01 3.039204031267397355e-01 2.235982036948050977e-01
5.796762250938447547e-01 3.828289468917505101e-01 0.000000000000000000e+00
2.817851368840222914e-01 6.736789357558601310e-01 0.000000000000000000e+00
5.863836711222800702e-01 6.104503975553641215e-01 0.000000000000000000e+00
4.215907826234116529e-01 4.600683756217129883e-01 0.000000000000000000e+00
1.766755429046484860e-01 4.977065762614634181e-01 0.000000000000000000e+00
7.898674920321867576e-01 1.570829876217625376e-01 3.594205204995095659e-01
4.669265315123142246e-01 5.912923402981938859e-01 0.000000000000000000e+00
5.629312297391342312e-02 5.859322993127633605e-01 0.000000000000000000e+00
5.165142152278815457e-01 2.571575036274386106e-01 0.000000000000000000e+00
5.667470131331113770e-01 4.313570063991900572e-01 0.000000000000000000e+00
6.473826621779514845e-01 2.883464599759195668e-01 4.047031573170781771e-01
6.798628864846418818e-01 6.259443161773686759e-01 6.205224520524876830e-01
6.840195797351671381e-01 2.168317690442513879e-01 4.432770899891562699e-01
9.449216358016554462e-02 5.744166997286874743e-01 0.000000000000000000e+00
3.996943443214742153e-01 -1.740262263353091754e-01 0.000000000000000000e+00
5.081079186204923159e-01 2.607059130554818527e-01 1.842789760509035979e-01
4.120345159237739363e-01 4.430516540959690275e-01 3.118427452361067775e-01
3.742906625140189902e-01 4.271062090581481119e-01 0.000000000000000000e+00
5.096046395860465150e-01 4.457170799432419450e-03 0.000000000000000000e+00
3.214820824982749237e-01 2.526310508884055395e-01 0.000000000000000000e+00
3.767928401041298336e-01 3.517681497173574812e-01 0.000000000000000000e+00
3.418009733506051084e-01 3.293205690584890544e-01 3.398555265087053190e-01
3.405915242621526673e-01 5.203461923802908951e-01 2.657501411820312187e-01
3.451494649905094692e-01 5.366266535727657327e-01 8.869000586094144545e-02
5.427394358497723559e-01 3.885811658449578321e-02 1.843002247146227068e-01
1.154543135860239822e-01 6.788123038196212100e-01 0.000000000000000000e+00
4.706670595990136707e-01 4.142218369779830933e-01 0.000000000000000000e+00
3.272644732274789803e-01 3.401407608577327046e-01 8.912655751652642788e-02
4.281896298628893316e-01 5.989761100174623154e-01 0.000000000000000000e+00
4.906148398513148212e-01 3.957887864301137260e-01 5.183124521330236822e-01
3.311866624847163987e-01 3.374119436277323025e-01 0.000000000000000000e+00
3.158927785194280968e-01 4.518020701862336397e-01 0.000000000000000000e+00
3.139409413692828554e-01 9.541405554210846685e-02 5.028533745124993404e-01
3.700671964797475066e-01 3.470771143553432747e-01 0.000000000000000000e+00
4.477445546189440240e-01 1.161864840761641648e-01 1.461099238882003215e-01
6.336780000665916956e-01 1.938890931422133646e-01 0.000000000000000000e+00
4.573810289979844956e-01 3.874659962876230157e-01 0.000000000000000000e+00
4.784392243146176060e-01 5.765309936282014824e-02 0.000000000000000000e+00
5.706827698036780472e-01 4.101550261141915232e-01 0.000000000000000000e+00
1.000610127807683547e+00 5.735047719510610875e-01 0.000000000000000000e+00
3.641421393997499312e-01 2.758621888897379026e-01 1.453556563352149666e-01
6.044546200922579215e-01 3.795398555717470757e-01 0.000000000000000000e+00
3.028664088633430396e-01 2.528469315838854925e-02 0.000000000000000000e+00
3.132276610741001610e-01 3.137321507143466803e-01 0.000000000000000000e+00
3.234794957755362521e-01 4.920079151389198380e-01 0.000000000000000000e+00
6.514727009833702898e-01 -1.073987966517297998e-01 0.000000000000000000e+00
4.743114849949741085e-01 2.992273171139350207e-01 0.000000000000000000e+00
4.749366883370624848e-01 3.698131215686930595e-01 0.000000000000000000e+00
3.375003032363643740e-01 5.353917899451414719e-01 3.121611681996313559e-01
1.057848631858907540e-01 6.641064912199310388e-01 0.000000000000000000e+00
5.273912483862405187e-01 6.471056466286243536e-01 3.500877602338197114e-01
3.682696053260863245e-01 8.457359377438566916e-02 5.934632465467972740e-01
2.618164021309644651e-01 -6.899323072158969339e-02 3.617536258154316897e-01
4.110622034138704528e-01 4.916295730181917678e-01 0.000000000000000000e+00
4.815783538543825237e-01 -1.411409924949775796e-01 0.000000000000000000e+00
8.607907305223090333e-01 5.344026795037262190e-01 0.000000000000000000e+00
1.710104100272029637e-01 4.185084791777293756e-01 2.441915469069585454e-01
4.944296019582390400e-01 1.367977497501271511e-01 0.000000000000000000e+00
7.108038574212386385e-01 6.742822771711294294e-01 3.159538560607857427e-01
3.173360221092862421e-01 3.828881672295927352e-01 0.000000000000000000e+00
3.175962445826769898e-01 -3.893635901762837470e-02 4.163857415480061164e-01
2.067695698744600463e-01 5.273963820958249560e-01 2.356075842139818688e-01
4.474299424612985243e-01 3.694034745010509324e-01 2.910288476467638441e-01
1.001533499275105710e-01 2.278581222429971742e-01 0.000000000000000000e+00
3.843405309951417603e-01 5.344385859829926533e-01 0.000000000000000000e+00
5.915879468671875197e-01 2.866817307372844237e-01 0.000000000000000000e+00
4.140546334709884757e-01 1.546907849397487489e-01 1.379634077016997917e-01
6.744070882837088776e-01 2.232260712605809161e-01 0.000000000000000000e+00
6.762606836427145218e-01 4.794602945480918033e-01 3.853229112528138156e-01
6.920277286213135648e-01 2.438084834341976981e-01 5.002296705323561188e-01
5.517831789477963822e-01 1.473354292816777544e-01 3.243128121226348526e-01
6.930814258750281898e-01 2.763761992251367872e-01 0.000000000000000000e+00
5.128430135481630847e-01 7.298243630093885770e-01 4.104529276065017607e-01
3.395821760913104725e-01 2.201379698186457512e-01 0.000000000000000000e+00
3.611974415701729724e-01 2.676034052966774768e-01 1.648830559475242818e-01
4.459232969632100918e-01 3.219703531910866889e-01 0.000000000000000000e+00
6.433876209366810039e-01 2.731626329840568523e-01 0.000000000000000000e+00
9.114580472038525949e-01 1.229460052530371161e-01 2.346525617744654735e-01
5.573100989731885058e-01 -1.052942328454662402e-01 3.014172402794634831e-01
5.694753957252352006e-01 8.019571676457482035e-02 4.113217343822652694e-01
8.709256531606028862e-01 5.123831774606159017e-01 0.000000000000000000e+00
5.077260948096989912e-01 4.445601936062988369e-01 0.000000000000000000e+00
5.641487697070177720e-01 6.222083606340678141e-01 0.000000000000000000e+00
6.886165038365451574e-01 2.225342674494804607e-01 0.000000000000000000e+00
5.323699082480641831e-01 1.058773485094859357e-01 0.000000000000000000e+00
4.923046969800588535e-01 3.079500311146650127e-01 3.918285145223798782e-01
7.098230903621871590e-01 4.282069867064911550e-01 2.692682205254446348e-01
4.381681230757177303e-01 5.049164630917860608e-01 3.888162001706561011e-01
5.034087353758572858e-01 2.149172712178979427e-01 0.000000000000000000e+00
7.327342891921054813e-01 4.715625565621925919e-01 0.000000000000000000e+00
8.126656298131443856e-01 4.310278494730197529e-01 4.684191556459458283e-01
5.043920762740335961e-01 2.795335841011822309e-01 6.184143310744305566e-01
6.551690342108678067e-01 1.158914236361864303e-01 0.000000000000000000e+00
2.101132161658535447e-01 6.191994966970334469e-01 0.000000000000000000e+00
6.303476996447512359e-01 -1.508746700542569208e-01 0.000000000000000000e+00
8.186256420083308782e-01 5.983853162828672856e-01 0.000000000000000000e+00
5.590157370595514319e-01 5.734328281982968845e-01 3.137671412094008572e-01
1.069321219880208451e+00 3.819436492544463491e-01 0.000000000000000000e+00
4.695044977066539227e-01 3.100454822250950926e-01 0.000000000000000000e+00
1.692361790864529425e-01 3.218599209550148110e-01 0.000000000000000000e+00
5.139204285867301492e-01 3.910035527108469688e-01 1.591257992680989997e-01
5.600942452637219793e-01 1.704595641667675521e-01 0.000000000000000000e+00
9.176755205875424259e-01 5.884522978868897969e-01 0.000000000000000000e+00
5.492413682315401280e-01 -1.059774285901144975e-01 0.000000000000000000e+00
5.556954918022589673e-01 3.063158644471659642e-01 2.265205448569570512e-01
4.851625724757583358e-01 3.448226644163472354e-01 0.000000000000000000e+00
6.507021302584862221e-01 3.553286663285804003e-01 0.000000000000000000e+00
6.102651940984519241e-01 5.232404351066831660e-01 0.000000000000000000e+00
3.715255954175109565e-01 4.527034259861562049e-01 0.000000000000000000e+00
3.794006344858145141e-01 3.167029852458049799e-01 0.000000000000000000e+00
9.124461506398392485e-01 5.278509811535457841e-01 3.079740220665616590e-01
3.797111068167546843e-01 2.553571150472369045e-01 1.707471437252889856e-01
4.126525263564571055e-01 3.361672551444061519e-01 3.538341450155337853e-01
4.303051381283777843e-01 1.901360583219696698e-01 2.785678142061485119e-01
2.725576996144991604e-01 2.118502175511787211e-01 6.610641831365581256e-01
5.520336409846502423e-01 2.458947225569807493e-01 0.000000000000000000e+00
6.832421487520307091e-01 4.942904010416033778e-01 0.000000000000000000e+00
3.844045338481261176e-01 3.650566107135788663e-01 0.000000000000000000e+00
5.680672993995011799e-01 2.396884378277897021e-01 0.000000000000000000e+00
7.179491190825227909e-01 4.692257179398826583e-01 1.637308449198423554e-01
4.441554893109913582e-01 3.404650790909902192e-01 0.000000000000000000e+00
3.442175834289467051e-01 9.514611269959305506e-02 2.606319613244914013e-01
2.092906768414010132e-01 5.199524727380825384e-01 0.000000000000000000e+00
8.473640543314275853e-02 3.598733878881249515e-01 7.481905135029056630e-01
2.363677687179213116e-01 6.208232975671863496e-01 0.000000000000000000e+00
4.910799526233087242e-01 5.225784308085810181e-01 1.476327932766641204e-01
4.157545720037917336e-01 -2.818800370003002875e-01 0.000000000000000000e+00
4.568751532150405748e-01 4.027039527683229370e-01 0.000000000000000000e+00
7.666288764262325639e-01 2.069950685125750978e-01 3.048500257378030653e-01
3.022943537612419185e-01 6.000839139590715687e-01 2.275961197797905511e-01
6.213763408681041156e-01 2.043104431657150055e-01 0.000000000000000000e+00
6.275585076000791407e-01 4.855749648896191539e-01 3.586659253074968579e-01
9.548453740489318831e-01 4.477923024591583534e-01 0.000000000000000000e+00
5.611019169387686523e-01 5.773786460267655851e-01 0.000000000000000000e+00
5.882927905046125838e-01 4.430898422891831334e-01 4.058593897786502147e-01
4.118589475203937589e-01 4.183828220647387575e-01 5.887068271476886272e-01
3.954270178065697472e-01 -9.599187304481038296e-02 5.188009325424504103e-01
4.713924897747430176e-01 3.715794893550716793e-02 2.089012484635047739e-01
6.768513238605691207e-01 5.007246385174927150e-01 0.000000000000000000e+00
3.900018286182793670e-01 5.091414059510465107e-01 5.430863322646484193e-01
4.720949578809727765e-01 1.453522881253515031e-01 0.000000000000000000e+00
4.511651609310869393e-01 8.936494124327576394e-02 0.000000000000000000e+00
9.071499578728746682e-01 5.150760729059041809e-01 2.729689258619517611e-01
2.483386461078286311e-01 4.042986549723348588e-03 1.056434933524790232e-01
3.721585170004022558e-01 2.755132701530755845e-01 0.000000000000000000e+00
3.551905548600359230e-01 1.709087114359768567e-01 0.000000000000000000e+00
4.015581683271298719e-01 2.744536821022705020e-01 7.547473174326047030e-02
5.327639721424094477e-01 8.624687109471429469e-02 4.567968228192580415e-01
6.371145513919235226e-01 5.380155065646702317e-01 0.000000000000000000e+00
3.461342090171304342e-02 5.579136756809806030e-01 0.000000000000000000e+00
8.571250171422577502e-01 3.314669344712846133e-01 5.096082562433412733e-02
9.186254457093318004e-01 4.136712806675204579e-01 1.738005782124391052e-01
7.439822448322943593e-01 4.441553398381997697e-01 5.002063789688068196e-01
2.994321506711823400e-01 4.729273096194039905e-01 0.000000000000000000e+00
6.593150910147329569e-01 3.363944852221325554e-01 5.562961953309532026e-01
3.416652067794041514e-01 2.877189461840783391e-01 0.000000000000000000e+00
8.147037938059442652e-01 5.690250522261468547e-01 0.000000000000000000e+00
6.692433762659317775e-01 -8.836829502310594719e-02 0.000000000000000000e+00
6.013063978670292187e-01 9.845041887547556492e-01 0.000000000000000000e+00
6.884746423809843252e-01 2.536785438585021923e-01 0.000000000000000000e+00
5.883874210052150167e-01 8.773568074472426481e-02 1.951237871476065866e-01
3.379271974938220513e-01 3.563322087567146745e-01 5.257197372259134749e-01
5.204039642212644479e-01 3.251211008232447464e-01 3.061864060463908022e-01
6.692114703888687455e-01 4.770808396708752230e-01 0.000000000000000000e+00
3.074594416514413453e-01 4.331337885198416338e-01 0.000000000000000000e+00
4.950827869579028651e-01 5.896037645795593196e-02 0.000000000000000000e+00
7.427973652997336140e-01 2.183365788062064938e-01 0.000000000000000000e+00
5.079531515307710299e-01 1.622078714316173009e-01 4.192655453278933964e-01
5.913877405061952475e-01 1.481070329440626887e-01 1.584757686980471370e-01
5.408983574222772095e-01 -2.010684896395356080e-01 3.099575442705408967e-01
4.450521522988950540e-01 -1.398127305352332428e-01 2.703733609061829135e-01
1.517286385197331722e-01 6.226245348760550691e-01 0.000000000000000000e+00
4.986548894704611046e-01 1.707924427689809788e-01 0.000000000000000000e+00
2.689316443533915635e-01 4.161451236768307638e-01 0.000000000000000000e+00
6.135041441382289573e-01 3.949594625307422113e-01 3.634775260437899114e-01
5.155127713447261728e-01 3.180556795402743608e-01 3.595901018053313525e-01
4.606238109521402224e-01 4.583944018352272831e-01 3.877387523904441968e-01
7.676276125104302128e-01 5.591952781264680761e-01 4.408981155802600416e-01
4.522221489219511170e-01 2.248637880673887146e-01 4.516015940020962072e-01
6.272212181443896917e-01 6.560793726292436512e-01 3.014977653661842227e-01
7.302784269817506058e-01 6.062760319897976258e-01 4.829388129001717100e-01
3.885374740107651048e-01 7.538342950623522221e-02 3.173141326090611614e-01
3.827174082570827807e-01 2.148748581067272401e-01 3.587186886635760352e-01
8.591079747053380622e-01 3.691955090853558108e-01 2.066201872766801895e-01
3.408269446595746377e-01 4.824765209888798312e-01 2.609474530392570379e-01
8.044686213879203018e-01 3.973766299994164752e-01 1.419859834380452490e-01
9.945602574239590377e-01 5.181415539351307276e-01 0.000000000000000000e+00
4.677107556678807843e-01 -1.649285594689069434e-01 2.481783182975405566e-01
4.897651166070995377e-01 3.989962721076788510e-01 4.347138147906559613e-01
6.413944227338405080e-01 3.382147869999150291e-01 3.156568898222174013e-01
3.279807701481278759e-01 7.468254269142485802e-01 4.416107757924168098e-01
6.110460818540555117e-01 7.897797534428940835e-02 4.749000828136922259e-01
3.692401329397458909e-01 2.489182854397582467e-01 2.318432127445747559e-01
2.893581492943866351e-01 3.480245474068590639e-01 3.616077639109196440e-01
6.798135610721898203e-01 5.967782315739466048e-01 0.000000000000000000e+00
8.617157807738394792e-01 3.421279936983254721e-01 0.000000000000000000e+00
3.868255034178237350e-01 9.253112843692035128e-02 0.000000000000000000e+00
2.555998801713221802e-01 5.741072738304526801e-01 0.000000000000000000e+00
5.491516477853911615e-01 2.349650140434893508e-01 5.583670560785812809e-01
4.564065545927522560e-01 2.943174841171070089e-01 5.897941634281689272e-02
-3.096695449793496202e-02 6.767379986096053734e-01 0.000000000000000000e+00
8.814417229563004108e-01 2.501445938894537591e-01 5.015909416869138715e-01
6.616672677905495181e-01 2.349108000085444736e-01 3.883465769014511348e-01
5.985470032435278309e-01 4.934114316727935545e-01 4.872718120123009644e-01
5.879672904169170877e-01 5.178183788009048660e-01 2.426655659722941616e-01
3.308323566303381646e-01 3.270993046699943729e-01 4.597192479262798281e-01
5.874865382670934055e-01 1.427546255613444393e-01 1.219274679536652695e-01
4.431238838417390635e-01 1.960611270394184702e-01 1.514638317965487646e-01
5.342400660711335014e-01 3.741931098643043185e-01 0.000000000000000000e+00
4.581633407557448301e-01 3.862784727832584419e-01 0.000000000000000000e+00
4.035840074306609182e-01 4.095069518225935568e-01 0.000000000000000000e+00
3.962675574529679334e-01 5.599988783828133698e-01 1.893350576166389354e-01
3.941151042257895476e-01 6.456333117311030545e-02 2.678009457576818741e-01
3.858231504754097152e-01 5.592751794605465010e-01 0.000000000000000000e+00
4.231421639842368743e-01 3.279058400606373880e-01 0.000000000000000000e+00
4.418785943101635194e-01 2.431228381089990398e-01 2.861258077139154921e-01
1.208751729561257093e-01 5.122656007818715551e-01 0.000000000000000000e+00
6.083182809127485324e-01 3.128515328947281127e-01 3.781377937463231698e-01
8.711259756106031205e-01 5.345288161572333552e-01 6.374464660917780190e-01
5.794591490501010966e-01 2.268244060959880848e-01 2.408013342726686989e-01
3.221691739989667180e-01 4.572817751019854215e-01 3.501802148098928091e-01
4.599965397163617853e-01 3.791864590504711030e-01 5.686532748790361635e-01
2.458620936650002253e-01 4.015801739797455472e-01 4.638277483556039194e-01
1.091071927799470265e+00 9.011188283184717873e-01 0.000000000000000000e+00
1.268712997422104971e+00 6.710514333733524905e-01 0.000000000000000000e+00
4.449116224342692938e-01 3.401082125395669120e-01 0.000000000000000000e+00
4.930877880180299933e-01 8.189402290641611959e-02 4.724434380845423664e-01
7.498925313990985053e-01 4.483270145284192765e-01 4.463112770666624041e-01
6.834385940335846454e-01 3.448671820737367888e-01 0.000000000000000000e+00
7.878970353426997253e-01 3.880797380133698127e-01 0.000000000000000000e+00
6.542304293998942866e-01 -4.025071742329822122e-02 2.062375944216752188e-01
9.176513531584579164e-01 4.889356720854642901e-01 3.896447070364694731e-01
6.198432235419493175e-01 4.098753229021345756e-01 4.339497774371026129e-01
5.692701054182012221e-01 -3.478685736127440364e-02 0.000000000000000000e+00
3.423252845484452411e-01 3.444348384094417792e-01 8.017991556053885027e-01
6.370544426381518077e-01 3.490639053777941925e-01 4.240828898154629378e-01
1.012196310157368773e+00 7.707551390519877810e-01 0.000000000000000000e+00
5.119173792143839608e-01 1.626797571865128411e-01 4.786642443175912476e-01
1.394039964079440974e-01 3.817543401802816483e-01 3.685105969854562957e-02
5.272494318381911738e-01 4.644328564160027373e-01 1.512656184471218301e-01
7.606282795503336303e-01 2.285781883638469125e-01 8.764510631690012321e-01
3.921800478279979796e-01 3.579069667305729840e-01 3.599563531034368769e-01
6.360146451532204814e-01 3.798946977676014303e-01 0.000000000000000000e+00
3.613733030910710742e-01 3.340271383228179403e-01 0.000000000000000000e+00
7.036841504357228549e-01 3.966703532458999426e-01 0.000000000000000000e+00
4.902128463630082145e-01 4.127270234183733066e-01 0.000000000000000000e+00
9.383938059916859808e-01 -1.880714639182257120e-01 4.069489271485706716e-01
4.668405955628063264e-01 3.651657564626271668e-01 0.000000000000000000e+00
6.232549337840489478e-01 7.080169413629755493e-02 0.000000000000000000e+00
5.618925483211353322e-01 5.175397052207020288e-01 0.000000000000000000e+00
9.846732467939469657e-01 1.946885236771849215e-01 7.991553218268137027e-01
1.235836607682748722e-01 5.686886207167679563e-01 0.000000000000000000e+00
5.781486784125929868e-01 3.401981277617596167e-01 4.926439029654459123e-01
4.407870251334382594e-01 3.647918896147054335e-01 1.083510382726503574e-01
4.688383770306885356e-01 1.966343572341574530e-01 1.951555697003386491e-01
5.555548466767897819e-01 4.861761714536944057e-01 0.000000000000000000e+00
7.819155109968387585e-01 1.829524482748499103e-01 6.663534216835156343e-01
6.821160145874136660e-01 3.078918206153820059e-01 6.717891907001322105e-01
2.570762374689741225e-01 4.414677163074909316e-01 0.000000000000000000e+00
6.297059606817776434e-01 4.469099370219462575e-01 2.401002366371656205e-01
4.149776016608082152e-01 5.481780470280320783e-01 3.027574421885537159e-01
6.543034930028305274e-01 2.304405584118958128e-01 5.991560467211628493e-01
8.455343541849851263e-01 6.681232765735152235e-01 4.330119015384235048e-01
6.270751804217079561e-01 4.684587063288085940e-01 7.619755877509903907e-02
3.225691818911211595e-01 2.986494128174346230e-01 0.000000000000000000e+00
6.008640935310380904e-01 -3.131761123219498621e-01 0.000000000000000000e+00
4.602450860883027239e-01 2.451852610653552089e-01 0.000000000000000000e+00
-1.101185126199721864e-03 5.457968515264676190e-01 0.000000000000000000e+00
2.859769662196518514e-01 3.016786939902043052e-01 0.000000000000000000e+00
5.652976072850004474e-01 3.177032935798620450e-01 0.000000000000000000e+00
4.021216509896317071e-01 3.716343444398877427e-01 4.936506380130782912e-01
6.472471301185236392e-01 3.810750124195920741e-01 0.000000000000000000e+00
4.970387750703713081e-01 9.138278454248915939e-02 0.000000000000000000e+00
6.379746545939517510e-01 4.411466550780096529e-01 0.000000000000000000e+00
4.696669119736649467e-01 4.432115006146055691e-01 0.000000000000000000e+00
3.091264768506960525e-01 6.086283162657238899e-01 0.000000000000000000e+00
6.642139737328536242e-01 -3.048344956224635638e-02 0.000000000000000000e+00
5.707382803041303188e-01 2.711347594842941078e-01 0.000000000000000000e+00
5.626099625123778258e-01 3.561411736166691933e-01 0.000000000000000000e+00
5.640030291165604170e-01 3.951927799777672501e-01 1.361015501047375675e-01
4.540460304997361307e-01 5.077008913646582355e-01 0.000000000000000000e+00
4.164063196640566122e-01 3.351572948848327016e-01 0.000000000000000000e+00
2.135870986674796024e-01 2.308845715280704036e-01 3.608913927317427550e-01
4.298601116509823683e-01 3.730371894324762128e-01 0.000000000000000000e+00
3.906675046366275827e-01 1.736089956405079127e-01 3.804691580466286194e-01
4.074457661010641996e-01 2.313355461915610478e-01 4.871757919856436470e-01
1.669737496207679417e-01 7.271009944314141826e-01 0.000000000000000000e+00
5.397478364865547773e-01 1.071008718332502330e-01 0.000000000000000000e+00
1.520294563830482115e-01 5.252841653464299654e-01 8.638974111346109375e-02
6.189122345611793863e-01 7.206240621359670806e-01 2.276440312954538525e-01
7.452985769084682355e-01 -1.200943434603574111e-02 4.149601922012478017e-01
2.618219431863246793e-01 6.061176820592101278e-01 6.365463284177800274e-01
4.682325047852804456e-01 5.915452793799019782e-01 0.000000000000000000e+00
6.131797117322420609e-01 3.000383015518669483e-01 0.000000000000000000e+00
4.804520529172893184e-01 2.221140315614948957e-01 0.000000000000000000e+00
3.486506331481253884e-01 5.168171748858355619e-01 4.150120455581340906e-01
5.018043990901118745e-01 4.236185644241322601e-01 6.653722088414182334e-02
4.796062032395491670e-01 3.347395038809701795e-01 0.000000000000000000e+00
1.913416089414874399e-01 3.510309102853976793e-01 0.000000000000000000e+00
7.074818813635632697e-01 4.360340920014325050e-01 0.000000000000000000e+00
1.204384094397624949e+00 4.375734116909879567e-01 0.000000000000000000e+00
8.506598672425765839e-01 4.591290782501580292e-01 4.050465306880350891e-01
3.278741722517348745e-01 6.209067477916715427e-01 0.000000000000000000e+00
5.857042614053081797e-01 3.030992412160389282e-01 4.684465766153502742e-01
3.013503112593034494e-01 5.020297258185966172e-01 4.133999789421327620e-01
5.203738796736990802e-01 6.856806766254354146e-01 0.000000000000000000e+00
5.193271573541703434e-01 2.265364294269262002e-01 3.546565202052904819e-01
4.925877173686366017e-01 2.731072796191886809e-01 3.840173887537610131e-01
4.281151269878791243e-01 2.840747372556045036e-01 3.263690847218057023e-01
4.534097902905507294e-01 4.744469494088736639e-01 0.000000000000000000e+00
1.710835415461597897e-01 5.762273364394635555e-01 0.000000000000000000e+00
2.505118933131467163e-01 2.176253561880212573e-01 4.463004323808292817e-01
4.180069956443430712e-01 4.318991635939135598e-01 6.076886094698324969e-01
5.668239208495403636e-01 2.748390575974275496e-01 0.000000000000000000e+00
3.641945724954132046e-03 6.710980678238663844e-01 0.000000000000000000e+00
8.603701755701085307e-01 9.566113202502357638e-02 0.000000000000000000e+00
2.908959033627149804e-01 2.521666078900162145e-01 0.000000000000000000e+00
1.942083806418207770e-01 6.577511963043096710e-01 1.750164590240195217e-01
4.283538174162031531e-01 4.727047628637031096e-01 3.739094829893705452e-01
7.792988637758695436e-01 7.390484390169600459e-01 3.819363075112340855e-01
5.844720776706701093e-01 2.929062799257964311e-01 1.577640415528582807e-01
7.190762921762727800e-01 2.561670901526573729e-01 4.821218245392633328e-01
5.538577496581963411e-01 1.308511527813474018e-01 3.090088520536091732e-01
9.642880902344400651e-01 7.317122317252897634e-01 0.000000000000000000e+00
3.978154162769445001e-01 7.758983949763478272e-01 3.635130505980521676e-02
8.612176937631238482e-01 -5.466516388682562955e-02 1.023486157239815730e-01
7.679665418451623315e-01 -9.235130550443759745e-02 3.135277918293005728e-01
6.470505856473054429e-01 -3.558462104691080263e-01 0.000000000000000000e+00
2.692510954145690416e-01 4.213433398683636977e-01 0.000000000000000000e+00
3.323102011099308140e-01 2.258399176798182584e-01 0.000000000000000000e+00
6.089243424922945458e-01 2.353723446474005332e-01 6.434787390453134970e-01
6.041086421477934731e-01 5.607084039411016629e-01 1.017715786637536368e-01
7.920272881563116263e-01 4.211822744337423430e-01 0.000000000000000000e+00
2.425045631994056095e-01 -2.391123173718590067e-02 0.000000000000000000e+00
4.406136999823477840e-01 6.569151340731270716e-01 4.209810809417382504e-01
7.592513363008798200e-01 5.578199484308251632e-01 4.112730403175369753e-01
3.154103088268740418e-01 1.860605078933101897e-01 5.057444088930752590e-01
3.933561484274052944e-01 3.206800504382518735e-01 4.308047819576366066e-01