POSCAR from GenerativeModels
1.0
2.000000000000000000e+01 0.000000000000000000e+00 0.000000000000000000e+00
0.000000000000000000e+00 2.000000000000000000e+01 0.000000000000000000e+00
0.000000000000000000e+00 0.000000000000000000e+00 2.000000000000000000e+01
Al As B Be Br C Ca Cl Co Cr Cs Cu F Fe Ga Ge H K Kr Li Mg Mn Mo N Na Ni O P Pd Rb Rh Ru S Sc Se Si Sm Sn Sr Ta Te Ti V Zn
7 6 3 4 3 6 10 24 7 3 1 2 7 3 4 3 68 5 7 11 18 7 3 11 12 1 13 7 1 2 2 5 8 7 10 17 1 3 1 1 1 6 7 5
Direct
-4.178240016601795226e-01 3.824781302229318669e-01 0.000000000000000000e+00
3.288159508791781427e-01 1.337685494323693769e-01 2.410743796634868819e-01
4.334136209713284060e-01 2.536317286046224639e-01 4.643357114100572502e-01
5.564282355164674732e-01 4.846383427710312386e-01 0.000000000000000000e+00
5.936188011110864471e-01 2.901163829700714736e-01 0.000000000000000000e+00
-1.349760211437605051e-01 6.181765337341420530e-01 0.000000000000000000e+00
2.459594715297321876e-01 4.455253200134257074e-01 0.000000000000000000e+00
6.710699467154308540e-01 6.483068671419487394e-01 3.429562607042473399e-01
4.046263563905996286e-01 2.487657388571171690e-01 3.381130268497041236e-01
9.904026345015815025e-02 4.003973830784768317e-02 3.196441168561856561e-01
5.501191311010811269e-01 9.485927225454482414e-02 0.000000000000000000e+00
3.008896009837280783e-01 4.574870582025509780e-01 0.000000000000000000e+00
3.831530832234405493e-01 3.013163287848097394e-02 0.000000000000000000e+00
4.144084240568879363e-01 4.401467347729481894e-01 0.000000000000000000e+00
6.391429933080096104e-01 4.166069217011925119e-01 0.000000000000000000e+00
7.550606575094954698e-01 3.549356893813374603e-01 5.970264497250837854e-01
1.086974140055228188e+00 4.891659430485717497e-01 0.000000000000000000e+00
3.929050663978179703e-01 2.775224597968632967e-01 5.679147654265569445e-01
5.728086358768420538e-01 2.289936645443401142e-01 3.808002872788778248e-01
5.571988650728955106e-01 1.053182377050554397e-02 2.811252734005043052e-01
6.776647490094653836e-01 1.920521401790997729e-01 0.000000000000000000e+00
2.171459678777477587e-01 4.113103606642940502e-01 0.000000000000000000e+00
3.886019392791559834e-01 6.456093821724128157e-01 0.000000000000000000e+00
4.493204802329879843e-01 4.158181484944769579e-01 0.000000000000000000e+00
2.270013361418280473e-01 4.593698590140187221e-01 0.000000000000000000e+00
6.487910152390424789e-01 3.790799910906288428e-01 5.233977518031962539e-01
5.742049393250793221e-01 5.393243729783500084e-01 0.000000000000000000e+00
3.038943589415463720e-01 1.252575388329888462e-01 6.387558453412033321e-01
5.401170344436111437e-01 1.607284784101594699e-01 3.176626250080601954e-01
6.244683944968320022e-01 3.568200985340646003e-01 0.000000000000000000e+00
3.619649090910873612e-01 1.583140460992915610e-01 0.000000000000000000e+00
2.229290687255155445e-01 3.435551575866947482e-01 2.616108277706650220e-01
6.194096574928440457e-01 7.029842602437400556e-01 0.000000000000000000e+00
7.514887084359967995e-01 8.391622117640036294e-01 3.787971652698387537e-01
4.626098945595502610e-01 1.737503425414490543e-01 7.001771861787970952e-01
2.045735943378594879e-01 1.643287169201033127e-01 3.041703138375192461e-01
4.881479975735365517e-01 -1.334773644473274956e-02 0.000000000000000000e+00
1.333444055859401844e-01 6.535199079329272465e-01 3.747834144150992142e-01
5.452820750394764548e-01 5.967564761372967652e-02 0.000000000000000000e+00
4.321753847044862429e-01 -1.884934128586079893e-02 0.000000000000000000e+00
2.406761592364932145e-01 4.806843225052107593e-01 0.000000000000000000e+00
3.318774874724896851e-01 -7.840861869904625081e-02 1.370385803320484097e-02
4.408137944273913256e-01 -5.284872753512139809e-01 0.000000000000000000e+00
3.903454071087335553e-01 4.596099082691946780e-01 0.000000000000000000e+00
5.262678896935719663e-01 3.625338224920438002e-01 0.000000000000000000e+00
1.049477569653202158e-01 6.123839755099834692e-01 1.484865048113186425e-01
4.642807560128059396e-02 5.940970467146468037e-01 0.000000000000000000e+00
7.338727879090347628e-01 2.401633984851154757e-01 2.792152537970900017e-01
0.000000000000000000e+00 0.000000000000000000e+00 0.000000000000000000e+00
6.334821287111500610e-01 6.205583738770967805e-01 3.136032952647545002e-01
3.592807481472983788e-01 2.323949832387914860e-01 1.286331953527691807e-01
5.756641826560098263e-01 2.608064028936305512e-01 0.000000000000000000e+00
1.050109302984581161e+00 4.835930586836600931e-01 2.830741970621051262e-01
4.230240296133815914e-01 2.824238258646853961e-01 0.000000000000000000e+00
3.394975351841348354e-01 3.041115526343021180e-01 4.890714543550771509e-01
1.806756278328572884e-01 4.326349692022026794e-01 0.000000000000000000e+00
6.928541120083245852e-01 5.834070308786084569e-01 0.000000000000000000e+00
8.251994435765952485e-02 2.260815943358653879e-01 1.010679652888033520e-01
4.452517266219736536e-01 4.449563101611380134e-01 4.112364141691086106e-01
1.122915983395555095e+00 -1.563462920604630213e-02 1.529519533997685254e-01
9.648417842432484015e-01 5.903974591185691123e-01 0.000000000000000000e+00
7.988940023774887544e-01 3.513580603698354121e-01 0.000000000000000000e+00
4.533571916570060534e-01 2.463779878490367503e-01 0.000000000000000000e+00
6.038762686523242440e-01 1.334494103644312535e-01 5.898624177178904970e-01
4.882497298895694948e-01 1.364111762407774764e-01 1.976780372564358457e-01
6.840288885241507799e-01 2.926793015523894148e-01 4.507256550832243747e-01
3.412345797286044924e-01 5.660375528383071453e-01 0.000000000000000000e+00
5.219944697512327592e-01 5.151562916838281492e-01 1.745913711314224237e-01
5.300676212326917991e-01 5.369861813648014737e-01 2.105381376536976656e-01
9.662064881176922748e-01 4.531652594943441636e-01 0.000000000000000000e+00
7.115855622597422325e-01 2.993208293100118045e-01 6.310406612499267487e-01
4.958834815886365988e-01 3.238222554739920156e-01 0.000000000000000000e+00
2.646751427397846523e-01 1.675313452964387606e-01 5.016593899474409701e-01
3.285900193580195694e-01 1.946542939385578208e-01 0.000000000000000000e+00
8.527103373445575896e-01 2.604902189545876823e-01 5.001744812962599651e-01
2.050825247054037792e-01 9.141796407901643384e-01 0.000000000000000000e+00
5.374033286746405791e-01 1.915087328351620100e-01 2.371703021131347233e-01
5.021207455727654256e-01 -1.164093008067805801e-01 3.070343225008060895e-01
1.128134235497915139e+00 8.165176187985878631e-01 0.000000000000000000e+00
2.630827189362427987e-01 3.452468863434876578e-01 2.441052666936067705e-01
4.741046366184017424e-01 5.727530504230120556e-01 0.000000000000000000e+00
8.839005980392520279e-01 5.053350312431403868e-01 0.000000000000000000e+00
9.072020417562005612e-01 6.883324999167972358e-01 0.000000000000000000e+00
6.469659500664661778e-01 1.845994259490226774e-01 4.336330395017928829e-01
7.080979222514627303e-01 7.839442979203981032e-02 4.259769059314719719e-01
5.862242866232000305e-01 1.672002858302620298e-01 3.625239072248147565e-01
3.089896678011683218e-01 5.477796300550696884e-01 3.452788424219022101e-01
4.593431063209175713e-01 1.020966721549726453e-01 0.000000000000000000e+00
3.103111993437057681e-01 7.290002795279539871e-01 0.000000000000000000e+00
5.402045179227940030e-01 4.907537140350074489e-01 3.481670950225429495e-01
6.588609030628228558e-01 4.232062247779888597e-01 0.000000000000000000e+00
3.230553251871439713e-01 -7.811164986655505516e-02 1.343853162719246264e-01
6.882023591745823898e-01 5.390193806237731922e-01 0.000000000000000000e+00
4.803440618255883088e-01 6.143105894609962592e-01 3.157788816548037225e-01
3.756834662811403547e-01 4.899115241938181153e-01 4.954560352330990014e-01
1.610356602295492934e-01 2.435084664334344895e-01 2.785282630800385295e-01
4.338681293472488321e-01 7.253460937575750833e-01 0.000000000000000000e+00
2.429160017946357941e-01 2.106594491111507539e-01 3.800013049785034847e-01
5.410946921879438154e-01 2.458063714670020161e-01 0.000000000000000000e+00
5.325770882041044318e-01 4.027481546593616457e-01 3.679896639855686491e-01
4.901858234917451096e-01 1.237446204508124703e-01 1.784264666267967314e-01
6.453386875275697321e-01 4.470394421301608912e-01 5.873889478032293665e-01
8.223529639889687326e-01 4.024692034724026701e-01 2.515438497291362374e-01
7.111918064400195583e-01 3.767116451376981701e-01 0.000000000000000000e+00
-3.504896255558787033e-02 3.324816161301189510e-01 0.000000000000000000e+00
6.361766911921351575e-01 4.250993291607910729e-01 1.107888591342176543e-01
5.959575214871533078e-01 5.935946367083441144e-01 4.371956257273308388e-01
6.119884855898091169e-01 5.672704356682468640e-01 4.821769612633183266e-01
4.291584495071627536e-01 -3.204676487146056463e-01 0.000000000000000000e+00
4.740588590112126965e-01 3.453908701584107455e-01 5.471057816970102960e-01
3.148231038063371567e-01 3.056345694079527497e-01 0.000000000000000000e+00
5.293738096083079325e-01 1.805583794346794502e-01 0.000000000000000000e+00
1.647599735558187284e-01 5.326434121094432150e-01 1.492850700237510209e-01
7.518684170308937986e-01 3.687046480882489874e-01 0.000000000000000000e+00
7.416221218642858881e-01 3.216417002316078744e-01 0.000000000000000000e+00
4.553547493181899775e-01 3.642828288280860471e-01 3.674089444208471500e-01
5.800373581021630587e-01 1.098151536082956348e-01 0.000000000000000000e+00
8.078762151237960376e-01 2.567049054805046193e-01 4.207417473411806386e-01
5.236710406587608002e-02 4.637049544444404869e-01 2.808885537978826896e-01
5.394798555097882753e-01 3.931452598836424617e-01 3.199911791941161265e-01
4.251311531889088169e-01 7.629834705550690988e-01 2.545171698942789718e-01
6.907736254114222874e-01 2.790226422503478965e-01 0.000000000000000000e+00
3.378888606302650199e-01 5.081302292770358831e-01 0.000000000000000000e+00
3.418804590057897830e-01 1.905091223699042491e-01 4.163857009625366867e-01
6.381928183640969143e-01 3.626087578611401074e-01 2.513511012125304589e-01
-1.260254462336671821e-01 5.537058814934210371e-01 0.000000000000000000e+00
7.732200158585644800e-01 5.849719479709578618e-01 0.000000000000000000e+00
3.134121656841657444e-01 4.072974420419492869e-01 6.285275442765245746e-01
6.754326382547368723e-01 4.574026423975772193e-01 0.000000000000000000e+00
7.931213723151547823e-01 6.213226963287677984e-01 0.000000000000000000e+00
3.419196446529231270e-01 1.579224260060999585e-01 2.930594633512446645e-01
2.764125789615945461e-01 5.281801403565092867e-01 0.000000000000000000e+00
4.341623786606594315e-01 3.787218647972003804e-01 0.000000000000000000e+00
6.165727608522004743e-01 4.617763524395097630e-01 0.000000000000000000e+00
7.109993135834900002e-01 3.637980515041132623e-01 0.000000000000000000e+00
4.219093914128229095e-01 4.370543524480943187e-01 0.000000000000000000e+00
8.024464616789468430e-01 7.485141730578168673e-01 0.000000000000000000e+00
4.373170294222605836e-01 4.929866239631516267e-01 3.475953874640866914e-01
5.564121287642584957e-01 3.350632277237686196e-02 0.000000000000000000e+00
7.652812392063249591e-01 2.413288751510589414e-01 4.787293372038315953e-01
3.400275325934017934e-01 6.911338323874968159e-01 4.883097476697588757e-01
8.742769511825202455e-01 5.190121733679128324e-01 4.410138530102616361e-01
7.706462680640076002e-01 2.481167982352605605e-01 4.480395794907795493e-01
5.564366028701518418e-01 9.611272214004978887e-01 0.000000000000000000e+00
8.360912262745817669e-01 2.132642089903233895e-01 3.569408059771683739e-01
5.754633854516838509e-01 7.447831415721588577e-01 1.587692659512246474e-01
6.302101980327399211e-01 5.987679353776184099e-01 1.028959961441378024e-01
4.024486372131688139e-01 5.457434940197816164e-01 3.955405693541877987e-01
8.549234068927464847e-01 6.530697298093098846e-01 5.053750014038377314e-01
6.156727101034235039e-01 2.911471005315433569e-01 0.000000000000000000e+00
5.080325163205404726e-01 4.237858379334502601e-01 0.000000000000000000e+00
7.749553113114282521e-01 7.175376801984971742e-01 2.094035112236706242e-01
5.767976968521973946e-01 2.550556202677831674e-01 0.000000000000000000e+00
4.741291326120118388e-01 9.127359945978885669e-02 0.000000000000000000e+00
5.225489023510412334e-01 1.461970571048085699e-01 0.000000000000000000e+00
8.993414446574166110e-01 8.026981693287063013e-01 0.000000000000000000e+00
2.583680706967976803e-01 3.582810977117008022e-01 2.866581004499620944e-01
5.452627711853559322e-01 3.984668990315554105e-01 0.000000000000000000e+00
3.695360840144368275e-01 3.982832462659273709e-01 3.151648079244236955e-01
3.753685003007547483e-01 3.940817343586244803e-01 3.712801907005470747e-01
4.164564589834505171e-01 1.706225345647829350e-01 3.319368935928477260e-01
6.539758316803719884e-01 7.228321025867701088e-02 0.000000000000000000e+00
2.610087056983387832e-01 5.414151170546420699e-01 0.000000000000000000e+00
8.513605445231429147e-01 4.083064829494229553e-01 0.000000000000000000e+00
1.094104353855103851e+00 6.528731643948115781e-01 0.000000000000000000e+00
3.019307473604582182e-02 6.405627242068174798e-01 1.908354570088205415e-01
5.253781677193356536e-01 9.066068784662162372e-02 4.897169355002763957e-01
5.161816026324544948e-01 7.433763695221878853e-01 0.000000000000000000e+00
9.146726970272480717e-01 4.434088074779944932e-01 5.994832609910553112e-01
4.371956681393895927e-01 2.255237340836924176e-01 0.000000000000000000e+00
6.098894834565431466e-01 3.799415088990043543e-01 6.662942981082923266e-01
5.738394923819076787e-01 5.156304490355498871e-01 0.000000000000000000e+00
6.949972339015566547e-01 7.659660426286918344e-02 0.000000000000000000e+00
5.420200323555997013e-01 7.769485094054839891e-03 4.437989087971137003e-01
7.048335969201285911e-01 1.109605841544587523e-01 1.406815715913858345e-01
5.045524284439538709e-01 3.425180100640464742e-01 2.679283940139534081e-01
6.625061028458503198e-01 2.088784187556780303e-01 4.153486396938943503e-01
5.448357745301735111e-01 4.368667140376374380e-01 2.305753309455678135e-01
2.287666495135913802e-01 5.207704857415081934e-01 1.035853717897412540e-01
6.867112441952460955e-01 2.810388554798315397e-02 0.000000000000000000e+00
5.041607121009952230e-01 3.496105597147596278e-01 0.000000000000000000e+00
7.213390933672845229e-01 5.707398013084861166e-01 2.781364088971872706e-01
1.702463573100467809e-01 6.058299969127918239e-01 2.041977908929715202e-01
4.966440080414999958e-01 8.153385792435865476e-01 1.051870854483250017e-01
4.874404311924319666e-01 4.843199531090343068e-01 0.000000000000000000e+00
9.101617556014949262e-01 2.933851761816508308e-01 0.000000000000000000e+00
6.487918648458468329e-01 1.992299760306869283e-01 0.000000000000000000e+00
6.002186546381016452e-01 5.367285126798381212e-01 0.000000000000000000e+00
2.817556783301676804e-01 6.479787906589002944e-01 2.542567919755086558e-01
4.201791169528046321e-01 5.177221908473151890e-01 0.000000000000000000e+00
7.699974436353146379e-01 2.840554875429162074e-01 0.000000000000000000e+00
4.349528552030781370e-01 5.379550230086174167e-01 0.000000000000000000e+00
2.905049757285854684e-01 3.664380226446748434e-01 0.000000000000000000e+00
8.712748446236855404e-01 5.611910074304493623e-02 3.736814520959058639e-01
4.258160745232781874e-01 3.392342198727829050e-01 3.430138588849376280e-01
5.680731816034818582e-01 4.883518662981314318e-01 4.528052378058062821e-01
3.634430198590596905e-01 7.938672143582659047e-02 3.335838740080727671e-01
1.505466715529645283e-01 6.193734139489066592e-01 0.000000000000000000e+00
6.623257019219481734e-01 3.784383336357202143e-01 5.345711023728436651e-01
4.357375609590408150e-01 3.668761696032434294e-01 5.169756294202034752e-01
5.246535228735238476e-01 4.077157408872991162e-01 0.000000000000000000e+00
7.157147681667410666e-01 5.746449634690650177e-01 2.049662375370043810e-01
5.917303356049475882e-01 3.637703259251435783e-01 4.030847358006000025e-01
1.185985822400597911e+00 3.230572257341137732e-01 5.965916865042342199e-02
2.907606203607127071e-01 3.994072102228929388e-02 5.055325424580421334e-01
4.649020011100091221e-01 4.291257656739264625e-01 6.028101989421154050e-01
4.172729163137911534e-01 -1.186771878565346938e-01 0.000000000000000000e+00
4.681077400393180987e-01 6.530439325106047743e-01 3.188180324827976087e-01
6.652065370963939905e-01 2.964532555371137690e-01 7.023417679562492522e-01
7.054924329977939612e-01 8.325288364925764739e-02 0.000000000000000000e+00
6.304674641276711844e-01 4.870746310648019772e-01 3.348422405837696569e-01
4.474093537645880136e-01 5.415703680112911034e-01 0.000000000000000000e+00
4.461029640676797969e-01 6.471427688404468581e-01 3.451544055487674179e-01
2.923886612638494364e-01 6.751695418562144724e-01 3.393170536501877166e-01
5.042152633479147772e-01 5.557229834305004168e-01 0.000000000000000000e+00
7.856381684637824270e-01 3.765755841209759147e-01 3.414417549323001122e-01
2.211138467113905604e-01 2.502819855593954035e-01 0.000000000000000000e+00
6.308154522638816930e-01 4.541944587582281700e-01 0.000000000000000000e+00
3.781348735810681205e-01 2.260820450562694983e-01 0.000000000000000000e+00
6.096432657297935487e-01 5.016508098742878952e-01 6.334346177118596044e-01
5.727625140364008827e-01 4.706010736650245718e-01 1.382581915802539863e-01
6.272833160113532314e-01 4.189733978972562944e-01 0.000000000000000000e+00
8.292985786750941557e-01 4.649272679145541876e-01 1.872373117516386021e-01
5.098573247256387164e-01 -1.837397507555524889e-01 1.223486013695832542e-01
3.835653529539346795e-01 2.525958535421473083e-01 0.000000000000000000e+00
3.290424068380914946e-01 2.119507647086869007e-01 0.000000000000000000e+00
6.044605038908059669e-01 -6.470043849554429904e-02 0.000000000000000000e+00
6.427775351695446115e-01 3.990250103323340625e-01 4.216420387779187262e-01
7.323944232537652477e-01 3.574842132033835274e-01 0.000000000000000000e+00
6.234222491796778121e-01 5.079983526435597474e-01 0.000000000000000000e+00
6.720639036676294698e-01 4.566616041597582054e-01 0.000000000000000000e+00
6.497585659363548372e-01 4.379297310072256533e-01 0.000000000000000000e+00
2.749222192840561352e-01 8.618142189531752262e-02 5.258836021349355683e-02
3.999709852727846293e-01 3.733754603181576037e-01 6.913730243189806224e-01
8.777544275447319855e-01 4.778673097463240760e-01 9.803987057186203113e-02
5.283782905652112394e-01 -3.467826354280667545e-03 0.000000000000000000e+00
3.894280493646091745e-01 2.802566692936345749e-01 0.000000000000000000e+00
7.832618089810571282e-01 4.431989719621298729e-01 0.000000000000000000e+00
3.785696837434416873e-01 1.994977342015752386e-01 0.000000000000000000e+00
3.567372689191485868e-01 5.147155741085532865e-01 0.000000000000000000e+00
5.198401254887435874e-01 5.962522922933608527e-01 0.000000000000000000e+00
5.867919295575966254e-01 2.640677493513421403e-01 0.000000000000000000e+00
6.840072719784785482e-01 3.908919278309064271e-02 4.079250004119567841e-01
5.352553488881410804e-01 -1.118993293693961721e-01 0.000000000000000000e+00
2.849924486354129538e-01 5.529538931630705312e-01 2.246188717265005241e-01
7.672279113236282200e-01 2.919957928563741145e-01 4.856763840132132248e-01
9.261124125309205812e-02 5.979614488576444620e-01 0.000000000000000000e+00
2.815560551070506179e-01 2.682936305160859014e-01 0.000000000000000000e+00
5.318343959623302863e-01 2.145948229147222053e-01 5.107442943249449474e-01
1.171306798362271140e+00 2.022096305860690002e-01 0.000000000000000000e+00
7.077902474672767008e-01 5.472842947353958598e-01 0.000000000000000000e+00
4.010685728995631028e-01 7.740873684699210999e-01 1.938114222144686760e-01
4.311268328178742282e-01 2.756653783676856762e-01 0.000000000000000000e+00
4.730463706461347506e-01 5.124053756956817862e-01 0.000000000000000000e+00
7.158787294080917185e-01 7.964580487734850278e-01 1.667057232786829379e-01
4.135893704462854092e-01 2.982276354323996070e-01 0.000000000000000000e+00
5.606078987969297378e-01 3.578212174139652202e-01 5.535416374235030412e-01
4.778778689968341542e-01 3.797886284575106020e-01 2.575049795260280217e-01
5.998619734157595307e-02 4.586683424527107089e-01 0.000000000000000000e+00
4.206648602157714301e-01 -1.724279222041245063e-01 0.000000000000000000e+00
8.772617023531703584e-01 4.422371313479396271e-01 3.276033334476307068e-01
4.180440562368473723e-01 2.134634443476923771e-01 1.559397753701989853e-01
4.415994860613021711e-01 -6.104746046231479539e-02 0.000000000000000000e+00
6.334818609815772161e-01 1.691437459539426591e-01 6.134378215228993847e-01
1.798583123045323084e-01 3.918944064911621394e-01 4.835927820109945374e-01
5.109528583288140968e-01 2.285773117408651522e-02 4.267789294442607684e-01
5.666367968559029578e-01 2.774230136508348821e-01 0.000000000000000000e+00
5.125058466278126224e-01 8.450241080542819638e-02 0.000000000000000000e+00
4.751718151285824199e-01 4.083573432467941799e-01 6.314189896501278820e-01
5.856084415910522978e-01 5.479850079135860641e-01 4.535023152067723107e-01
7.759954524430099365e-01 3.192672941212095772e-01 0.000000000000000000e+00
4.261961944375652900e-01 1.149508199667842456e-01 1.201493393487025330e-01
3.992164722402969934e-01 2.929516606427241543e-01 0.000000000000000000e+00
4.377850282739881305e-01 3.245375477873075898e-01 5.336785750187108546e-01
4.898938663388041626e-01 3.401200256654636211e-01 0.000000000000000000e+00
1.041613101959228516e+00 0.000000000000000000e+00 0.000000000000000000e+00
3.865255956275399640e-01 2.747537254537629758e-01 0.000000000000000000e+00
7.141136969711325833e-01 4.353450088011834307e-02 0.000000000000000000e+00
3.090966170785405254e-01 1.449741484088068466e-01 8.392916441416609086e-02
6.221925748036927217e-01 1.686016504455284393e-01 0.000000000000000000e+00
3.510745064694538176e-01 3.834422928306882028e-01 0.000000000000000000e+00
5.070383374309802571e-01 7.286700113758070030e-01 2.989123559414668119e-01
5.585103016841762580e-01 3.924428319614400307e-01 7.077903479705361933e-01
7.055343535910081343e-01 3.284921286553805775e-01 4.325133633192501659e-02
5.795291581057618879e-01 2.589622309126008437e-01 0.000000000000000000e+00
4.981732885551817258e-01 2.601410054842610009e-01 7.299911086767725266e-01
2.497521916502646322e-01 2.260427593120744039e-01 1.204625652388114920e-01
7.575358732457760924e-01 4.375498393832356614e-01 4.174405189359459145e-01
4.523075607094400041e-01 6.479926017013726280e-02 1.186068951981560371e-01
9.486630318136483053e-01 7.132939732216692086e-01 0.000000000000000000e+00
3.055408339597236456e-01 4.509288326458249507e-01 0.000000000000000000e+00
6.737219027086287504e-01 8.026100634134480938e-02 6.040227455004192336e-01
2.216155989258773440e-01 3.365262886641873230e-01 3.192031644041445348e-01
7.044309766680590945e-01 8.552361667593810779e-02 0.000000000000000000e+00
-3.095973668733635886e-01 7.563485534265043109e-01 0.000000000000000000e+00
2.199200608605180740e-01 4.062566446747262194e-01 0.000000000000000000e+00
5.333558674994516302e-01 2.265469229133927342e-01 3.509332158241529331e-01
4.217792947544067861e-01 1.807704231325423239e-01 5.239186838022856785e-01
4.159811065237343231e-01 4.007392801065789989e-02 4.469159387746062251e-01
9.877061147311274603e-01 1.024039681829552739e-01 4.825427880001944558e-01
7.155037974416509350e-01 4.231009869092605680e-01 0.000000000000000000e+00
2.771519266805575477e-01 1.313992706662839849e-01 0.000000000000000000e+00
7.010673497358389517e-01 2.052643953063146842e-01 3.590948972343341872e-01
4.414486692389314459e-01 1.713200412656559202e-01 0.000000000000000000e+00
3.744595499512922698e-01 4.128473775472494278e-01 4.586940837821034123e-01
5.147617665438588563e-01 3.974526023120215079e-01 0.000000000000000000e+00
5.646542748877121376e-01 2.670670183726117086e-01 0.000000000000000000e+00
1.232294115023573333e-01 3.010292888718364424e-01 0.000000000000000000e+00
9.113598524226902420e-01 6.963923126846320866e-01 0.000000000000000000e+00
6.239709914503233090e-02 5.951822012545451290e-01 0.000000000000000000e+00
9.150380251804690612e-02 4.603758651464688878e-01 0.000000000000000000e+00
6.098992284816849851e-01 5.653807110577192541e-01 0.000000000000000000e+00
8.734110482883580273e-01 7.494946423243493694e-01 0.000000000000000000e+00
6.700003638478397860e-01 4.283793076005799616e-01 0.000000000000000000e+00
5.515763897872753008e-01 1.555549483019886825e-01 0.000000000000000000e+00
5.593099971800659098e-01 3.610122159667470410e-01 0.000000000000000000e+00
3.582256915537238573e-01 5.476755427431257983e-01 1.310743056717336152e-01
4.612241158771552829e-01 -1.353524370935237364e-01 1.805869127157252452e-01
2.175373480879259080e-01 4.342813027508352075e-01 0.000000000000000000e+00
-2.217180274179451072e-01 7.458328480175120401e-01 0.000000000000000000e+00
2.568226176084453805e-01 4.038736680531491707e-01 1.097256054804973679e-02
2.284372990722295382e-01 3.353449842237190559e-01 0.000000000000000000e+00
4.818445349866207206e-01 1.735366876322144147e-01 2.436546204687985995e-01
1.157628074285288466e-01 -1.780208148837651994e-01 0.000000000000000000e+00
2.104365018434859458e-01 3.049755302119427913e-01 3.703275245151376183e-01
6.932090070165842777e-01 2.431440546883002485e-01 0.000000000000000000e+00
5.140352064146388456e-01 5.991677830144082062e-02 0.000000000000000000e+00
7.121885318097154194e-01 6.005159739453214129e-02 8.211877138979395419e-02
1.152639344875385996e+00 5.591659645107691645e-01 0.000000000000000000e+00
7.165344224883432034e-01 3.583025520479414805e-01 0.000000000000000000e+00
5.181514603867457547e-01 4.294075960890224586e-01 3.605199329596721070e-01
7.061476637847348137e-01 2.635933052228267570e-01 2.899317464682102941e-01
8.670644622940093527e-01 3.880929970168415233e-01 4.496270085100766423e-01
