POSCAR from GenerativeModels
1.0
2.000000000000000000e+01 0.000000000000000000e+00 0.000000000000000000e+00
0.000000000000000000e+00 2.000000000000000000e+01 0.000000000000000000e+00
0.000000000000000000e+00 0.000000000000000000e+00 2.000000000000000000e+01
Al As At B Be Br C Ca Cd Cl Cm Co Cr Cs Cu Dy F Fe Fm Fr Ga Gd Ge H Ho I In Ir K Kr Li Md Mg Mn Mo N Na Nd Ni O P Pd Ra Rb Rh Ru S Sc Se Si Sm Ta Tc Te Th Ti Tl U V W Xe Zn
8 5 2 15 6 9 16 2 5 29 2 13 1 2 9 2 22 3 3 3 12 5 7 168 1 1 5 1 9 30 42 15 25 8 2 14 20 1 6 17 8 6 1 9 1 1 18 14 7 21 2 3 3 2 1 13 2 1 19 2 20 18
Direct
6.298333242284500644e-01 4.775037147857088549e-01 2.739376046287456123e-01
1.141690497976024510e-01 6.773499189696700062e-01 0.000000000000000000e+00
4.887143586738886825e-01 3.191893239926392178e-01 5.166302576346404329e-01
2.137199450414551949e-01 -7.096797800470699968e-02 0.000000000000000000e+00
6.472226420908504529e-01 5.240607154399911094e-01 0.000000000000000000e+00
4.779385073717695720e-01 5.411103272315820334e-01 8.947797929242684578e-02
-6.717348205121265181e-03 6.867449055309826633e-01 0.000000000000000000e+00
1.799923976359438793e-01 2.631016095991003390e-01 4.095790476108345235e-01
2.445144267988286213e-01 4.203872694941508392e-01 3.134336826161341349e-01
4.319152458131354511e-01 3.935605549419991522e-01 0.000000000000000000e+00
6.976656776462167864e-01 4.218278336594964983e-01 0.000000000000000000e+00
-1.340155725644531781e-01 6.407356021437738969e-01 0.000000000000000000e+00
4.702721031124090789e-01 5.420115738524846627e-01 0.000000000000000000e+00
5.208856362324637557e-01 5.253327000230221255e-01 0.000000000000000000e+00
3.170444839821527916e-01 3.755499518349021404e-01 0.000000000000000000e+00
1.870850183030068337e-01 6.636598289005646301e-01 0.000000000000000000e+00
4.597374474884721174e-01 5.662795118867646194e-01 0.000000000000000000e+00
5.284501279292195264e-01 5.168855430586178912e-01 0.000000000000000000e+00
3.607465255539126225e-01 1.894368310241490994e-01 2.648168914395887530e-01
5.050481995420570414e-01 7.991832346242812024e-01 2.374665938570612589e-01
6.781870631405583216e-01 6.046775461772414539e-01 0.000000000000000000e+00
3.106159465686003651e-01 -2.010147197122513774e-02 4.087986739540716563e-01
2.481935088647688747e-01 6.100632244676713611e-01 0.000000000000000000e+00
1.597365797156152789e-01 6.220680496149113559e-01 0.000000000000000000e+00
5.148263779442776578e-01 7.816215995557959095e-01 3.632776299135087594e-01
8.054186588648168943e-01 4.438418904033963885e-01 0.000000000000000000e+00
4.193844603136935856e-01 1.295326111794915525e-01 5.723758778251242241e-02
7.430588436815481757e-01 3.437158097690797831e-01 1.301578408077839200e-01
5.892107297671671517e-01 5.850039051566734427e-01 0.000000000000000000e+00
5.671752561774894286e-01 5.235721736744506360e-01 3.717852506451311267e-01
2.753477838953733992e-01 5.362463897547141700e-01 0.000000000000000000e+00
6.110042800609001290e-01 3.892246629038973449e-01 0.000000000000000000e+00
5.938464062283835831e-01 4.761878380288649959e-01 0.000000000000000000e+00
6.360298707448558408e-01 6.622180569252025251e-01 0.000000000000000000e+00
4.030512815957152384e-01 3.942233957265909305e-01 0.000000000000000000e+00
3.650030748044632567e-01 3.726789864332722413e-01 0.000000000000000000e+00
4.350564324392793836e-01 1.619077422070811512e-01 5.078411641918991748e-01
2.893868672515447216e-01 6.624480956306305623e-01 3.951172132299937134e-01
1.079560403220867437e+00 7.133267909798083339e-01 0.000000000000000000e+00
5.096438511050542797e-01 6.228158017214722175e-01 0.000000000000000000e+00
5.707420708084948169e-01 1.196897826178402457e-01 4.219929448985926257e-01
7.467271821105964102e-01 6.395604332473766584e-01 5.415568352327224666e-01
4.041046210804739580e-01 3.672461651457046283e-01 3.944789448388674735e-01
1.795240562272193419e-01 6.035429273552176399e-01 0.000000000000000000e+00
7.782342289356569687e-02 7.527366107117865468e-01 0.000000000000000000e+00
3.772581039194489172e-01 2.604337891681716144e-01 5.905186185921391662e-01
4.607062576237966889e-01 4.467260343886791940e-01 0.000000000000000000e+00
4.473333714101224157e-01 2.403133658456976240e-01 1.424849852715477372e-01
7.720084180159760834e-01 4.889865223913354431e-01 0.000000000000000000e+00
3.148070005535794635e-01 4.082202973383808331e-01 0.000000000000000000e+00
5.270229872406094751e-01 1.295903348824136714e-01 3.453798195689834483e-01
5.693960453942972233e-01 6.019840583906702625e-01 1.648776364634653158e-01
8.056194337656956694e-01 5.946654078129880450e-01 0.000000000000000000e+00
4.141026494600879015e-01 6.538454628758110232e-01 0.000000000000000000e+00
3.730884684219615277e-01 3.706695237172890067e-01 2.228964561539598099e-01
6.172305520345113816e-01 5.113619020893486189e-01 0.000000000000000000e+00
6.141800146216584988e-01 5.644653273520492398e-01 0.000000000000000000e+00
2.532311167898297910e-01 3.096027409256779661e-01 6.779478286013225219e-01
7.249407479054120751e-01 3.623490162305840201e-01 0.000000000000000000e+00
0.000000000000000000e+00 0.000000000000000000e+00 0.000000000000000000e+00
2.427348591698055280e-01 4.444451586621218642e-01 0.000000000000000000e+00
4.449772311895909827e-01 6.413934844933977253e-01 0.000000000000000000e+00
7.392998353840619652e-01 6.564645058403734135e-01 3.379575602316546856e-01
7.272670741924391891e-01 5.895487471044360550e-01 7.688815940756034140e-01
4.716388920972416354e-01 1.169833615145824401e+00 0.000000000000000000e+00
1.100491184981565951e+00 3.746302390029244700e-01 0.000000000000000000e+00
2.158266384934115489e-02 7.834496343424904863e-01 1.749716092223675412e-01
2.232767890415734424e-01 5.477688803288746078e-01 0.000000000000000000e+00
3.603138506962855203e-01 3.101340072586147301e-01 2.580435624809263029e-01
3.508981058261707586e-01 5.055955725137917245e-01 0.000000000000000000e+00
8.437907467195637778e-01 5.165240211700211637e-01 0.000000000000000000e+00
3.848920366831053430e-01 5.143575278804022322e-01 5.300150084373997927e-01
1.743488518086473427e-01 4.180464768139997567e-01 0.000000000000000000e+00
4.723681814703938331e-01 4.766954013958675240e-01 0.000000000000000000e+00
1.939728114075123244e-02 4.562409373974789517e-01 0.000000000000000000e+00
3.405294120084692011e-01 7.504640028244744521e-01 0.000000000000000000e+00
5.078503964185844266e-01 4.091463423679480016e-01 0.000000000000000000e+00
7.715100435137245416e-01 4.190265936827932691e-01 0.000000000000000000e+00
5.651881893252975742e-01 3.755715970611472887e-01 4.152149812120311534e-01
-1.682606701524127502e-01 7.472298346243230194e-01 0.000000000000000000e+00
5.017787755347622447e-01 5.745194769643944266e-01 0.000000000000000000e+00
3.353385360805445359e-01 5.644367985783692587e-01 6.871292323480298059e-01
5.332451015444716891e-01 4.500246778916454637e-01 0.000000000000000000e+00
8.061260338840968709e-01 6.215951137675034266e-01 0.000000000000000000e+00
1.607265398933906964e-01 3.411146806789633334e-01 3.190079606411051483e-01
5.328717597960344055e-01 6.345844006985026375e-01 0.000000000000000000e+00
4.065293302331057790e-01 5.576947217518074540e-01 3.610661329781406081e-01
3.127085457858066464e-01 5.293944207380828493e-01 0.000000000000000000e+00
-4.296845408924232501e-02 1.801889625762232994e-01 3.497214168619895425e-01
4.141379825933322323e-01 4.599118756345010883e-01 0.000000000000000000e+00
3.256535751934492851e-01 4.499969847637481646e-01 0.000000000000000000e+00
5.027267100531164212e-01 3.673381411746887704e-01 3.416971100152983443e-01
2.617881041477210236e-01 3.729526035115178217e-01 5.751238639016462706e-01
4.766072569371626599e-01 3.785058742406390841e-01 6.274537357343371591e-01
7.738674601195375535e-01 6.277882646460279936e-01 0.000000000000000000e+00
6.847086265245349024e-01 6.500488440187200956e-01 0.000000000000000000e+00
7.397394759860277391e-01 5.427117982550466735e-02 3.741703315902640270e-01
6.414004579473034928e-01 8.305009208465877757e-01 0.000000000000000000e+00
9.141081280118366070e-01 6.389288848383126718e-01 4.069932907711303338e-01
7.253359852790498552e-01 6.104866269107820376e-01 1.576516133718404156e-01
8.366879276982306379e-01 1.306739404910454150e-01 2.260057963287421812e-01
8.473142348809461488e-01 6.837063408067177717e-01 0.000000000000000000e+00
2.425131477264619306e-01 4.736256589743038647e-01 7.646498579242203553e-01
4.019765091777023347e-01 5.417362011134300159e-01 0.000000000000000000e+00
1.879186076605028344e-01 8.664460026967711892e-01 4.367727973143016307e-01
4.732590162268289768e-01 3.440963396343357239e-01 2.763733488295594398e-01
2.894920218507064380e-01 7.117788118561838573e-01 0.000000000000000000e+00
-3.460362183355769616e-02 6.911273521962257860e-01 0.000000000000000000e+00
2.380446739378957455e-01 5.324600583730098036e-01 0.000000000000000000e+00
4.956214447503393128e-02 7.092287702739615840e-01 3.264970004601344122e-01
3.946472637966466079e-01 6.187851288313367393e-01 0.000000000000000000e+00
1.830714158867526864e-01 6.695045011522785527e-01 0.000000000000000000e+00
3.167470780242751527e-01 4.297169229464660178e-01 0.000000000000000000e+00
4.604805004107311861e-01 4.563605619616440956e-01 0.000000000000000000e+00
8.622778289403938423e-01 3.508961545551689820e-01 0.000000000000000000e+00
3.573188677820403614e-01 5.480755758784865428e-01 0.000000000000000000e+00
6.784241294865650529e-01 3.375549511869162522e-01 0.000000000000000000e+00
4.444657897483788034e-01 4.347604248788596859e-01 3.136170504783235558e-01
7.039926399758531517e-01 6.666840278687042876e-01 0.000000000000000000e+00
6.652628888189981993e-02 3.432718513749268840e-01 0.000000000000000000e+00
4.958867847573817933e-01 5.031935770699279553e-01 0.000000000000000000e+00
5.524401535022618326e-01 4.774120754959467750e-01 0.000000000000000000e+00
9.445240059031428936e-01 7.552016553556032408e-01 0.000000000000000000e+00
4.981267030127796147e-01 5.052953886426234664e-01 0.000000000000000000e+00
3.561324829015546367e-01 3.017498432852296908e-01 1.463857030657824687e-01
3.659825032787027421e-01 6.138983056536777561e-01 0.000000000000000000e+00
-9.205570875609137005e-03 5.399873735777823702e-01 0.000000000000000000e+00
3.772880038339314623e-01 -4.269090592542568174e-02 0.000000000000000000e+00
4.738891667634390625e-01 3.390474580009268379e-01 0.000000000000000000e+00
3.296252430533902489e-01 4.628676053487549291e-01 4.118462624161929320e-01
-1.964269507520817193e-01 3.974676549234266165e-01 0.000000000000000000e+00
4.024672177216572777e-01 4.758057768415497879e-01 0.000000000000000000e+00
4.903940548770089336e-01 4.443219900532070499e-01 8.071527493425456612e-02
4.553656015274101243e-01 1.990952437660449270e-01 3.402062297220032061e-02
6.240418145319052146e-01 3.630208819717299917e-01 0.000000000000000000e+00
4.437239054583885789e-01 2.018564326438525569e-01 0.000000000000000000e+00
5.731287980814631089e-01 4.583243903957822107e-01 0.000000000000000000e+00
4.400209955007735596e-01 5.315147147023026042e-01 0.000000000000000000e+00
4.734902322283607301e-01 5.224087807463636546e-01 1.830954779424945889e-01
3.593626326042164143e-01 6.529701005840896633e-01 0.000000000000000000e+00
1.084511975040967080e-01 3.974599212844485141e-01 0.000000000000000000e+00
2.354145343228963849e-01 5.001568700319160010e-01 0.000000000000000000e+00
7.832030257539144280e-01 7.795454738175955356e-01 0.000000000000000000e+00
9.205181750755455639e-01 6.058058433880899596e-01 0.000000000000000000e+00
3.832121468041880252e-01 4.779423596490618431e-01 0.000000000000000000e+00
-3.809839623596891212e-01 5.768158433362093884e-01 0.000000000000000000e+00
3.374376033867427793e-01 5.679234549722087522e-01 0.000000000000000000e+00
2.489444144392002345e-01 6.477817626146434860e-01 0.000000000000000000e+00
5.237750691333231678e-01 4.481421745015159441e-01 3.388328085900509379e-01
3.604264519792246269e-01 4.811421171572076716e-01 0.000000000000000000e+00
3.705374142680497584e-01 4.532710093660101691e-01 5.907631373956456766e-01
2.919772733265966203e-01 5.273028958175280945e-01 0.000000000000000000e+00
3.197863476234580338e-01 7.253553684595833717e-01 0.000000000000000000e+00
2.162855725397118123e-01 5.017202781763482333e-01 0.000000000000000000e+00
2.302703616527006503e-01 3.882878106392562145e-02 7.307211916543155938e-01
3.809157973434755817e-01 3.318554701432709919e-01 0.000000000000000000e+00
2.416647886254121858e-01 4.695217882653840435e-01 0.000000000000000000e+00
6.898067882593627020e-01 5.151733817407365690e-01 0.000000000000000000e+00
7.713257921937755057e-02 5.669803954928117617e-01 0.000000000000000000e+00
4.417459341372753645e-01 1.980731109837171600e-01 0.000000000000000000e+00
5.509106557664655845e-01 5.616539704330262284e-01 0.000000000000000000e+00
8.151560622269654610e-01 5.632113257117861149e-01 0.000000000000000000e+00
3.179342344512137153e-01 3.969156213598243887e-01 3.945819374844228289e-01
8.739833174663701465e-01 5.396617234897198578e-01 0.000000000000000000e+00
4.677794009108637852e-01 5.014067560593039596e-01 0.000000000000000000e+00
3.465830902755199228e-01 7.637656565655646101e-01 0.000000000000000000e+00
1.440358640113904576e-01 6.506113340325088146e-01 0.000000000000000000e+00
1.304643254251934614e+00 5.900836591887286264e-01 0.000000000000000000e+00
4.621669399346407525e-01 3.467142551972006714e-01 4.884299262438537292e-01
3.115520271677953978e-01 6.771168335304511565e-01 0.000000000000000000e+00
4.849375282924421882e-01 3.204172669343922086e-01 0.000000000000000000e+00
4.342397989522566171e-01 6.873708725798542973e-01 3.197363974771322281e-01
3.349533111060547519e-01 3.669214757190029097e-01 0.000000000000000000e+00
1.746269191808369481e-01 9.080782773426682164e-01 0.000000000000000000e+00
3.643899634523496411e-01 5.335627963685669606e-01 0.000000000000000000e+00
6.061370180454851431e-01 2.831633371923693021e-01 0.000000000000000000e+00
7.370812575729597249e-01 4.192248906130694452e-01 0.000000000000000000e+00
-3.895744577206006198e-02 5.747741882514242340e-01 4.906033967803031803e-01
2.757860325225207632e-01 1.352981214401638432e-01 1.652648991279100921e-01
3.147078657222246445e-01 7.775856712847852847e-01 2.494003174360861497e-01
7.335199016061277888e-02 6.930918562154739782e-01 0.000000000000000000e+00
6.960823133088960279e-01 6.795875468851555468e-01 0.000000000000000000e+00
6.599663513891346200e-01 6.369961236462181597e-01 2.230216868685559461e-01
5.126272847621703432e-01 4.193018056370874103e-01 0.000000000000000000e+00
-6.418063417905761625e-02 7.506641591452725137e-01 0.000000000000000000e+00
4.498553189637573002e-01 5.687146638265798693e-01 4.704469748449744415e-01
1.619675760629849526e-01 4.820549485429281855e-01 2.457468345145030764e-01
1.605638211607672838e-01 3.983323021960345489e-01 2.881040673613000092e-01
3.783568378380255393e-01 4.324875230546926241e-01 0.000000000000000000e+00
3.485923195422964138e-01 4.009176465450334792e-01 3.224650936782282873e-01
5.668774981256458068e-01 4.629200422703461104e-01 3.272436544383550139e-01
1.088639418207080878e+00 5.379813618300449685e-01 2.606209396047669546e-01
5.591097722950036930e-01 4.367076338062074736e-01 0.000000000000000000e+00
2.474249140696667126e-01 4.744742701483191105e-01 6.551210315045974397e-02
1.028921645408534147e+00 7.036911242752714735e-01 0.000000000000000000e+00
1.754151520406412867e-01 4.554784818843118366e-01 0.000000000000000000e+00
8.104364482446888562e-01 5.931496759526111440e-01 0.000000000000000000e+00
4.545316890442439028e-01 4.115171459260512643e-01 3.567486090793841047e-01
7.605570946292257162e-01 1.937389958003389312e-01 2.880628838100987021e-01
6.279918665617669760e-01 7.650312523115236907e-01 7.275451397524996811e-01
2.146238002759959240e-01 2.644625791796026970e-01 0.000000000000000000e+00
2.881074524501106016e-01 5.387125065183815398e-01 0.000000000000000000e+00
3.762299600188725446e-01 2.970188532451197849e-01 1.788729969327778058e-01
3.849893740055402303e-01 5.173336226113681713e-01 0.000000000000000000e+00
3.372874236097005429e-01 6.619351806331219557e-01 0.000000000000000000e+00
2.449707206768528822e-01 8.735338735185846915e-01 0.000000000000000000e+00
9.884510024856563160e-02 4.194557236591298643e-01 0.000000000000000000e+00
2.368615969015449574e-01 4.017542152142927758e-01 1.449897321292855645e-01
4.880424918544981061e-01 4.638503969175912234e-01 0.000000000000000000e+00
5.040524067135531139e-01 8.146778137406214260e-01 3.152505882694112138e-01
5.444478639904998252e-01 5.605291962285119389e-01 0.000000000000000000e+00
3.146485927328040999e-01 3.475356466994741211e-01 1.763492894325990878e-01
5.287231712282177698e-01 3.618680817472779143e-01 0.000000000000000000e+00
3.029830632347718655e-01 4.451339549148252139e-01 0.000000000000000000e+00
4.498377492950620393e-01 3.432248291749397939e-01 0.000000000000000000e+00
8.814106557355645410e-01 6.712037815557402309e-01 2.733504237123765002e-01
7.307486325445344821e-01 5.298262788026409931e-01 0.000000000000000000e+00
4.075388421625307789e-01 1.784234193610392261e-01 0.000000000000000000e+00
3.466435638339966374e-01 4.193727940484662797e-01 4.966195467158700527e-01
4.567516558755124745e-01 5.378188136423388555e-01 4.822963716576240678e-01
5.133312105876702836e-01 4.452606576784299275e-01 0.000000000000000000e+00
1.009223110882677688e-01 4.581743156839125364e-01 0.000000000000000000e+00
4.859290507613327481e-01 3.887926191905828333e-01 0.000000000000000000e+00
4.159725001053600213e-01 1.846645584896788872e-01 2.554303805421327400e-01
5.030296006923100638e-01 6.920839356799493025e-01 0.000000000000000000e+00
5.524797911349705881e-01 4.545377007434178163e-01 0.000000000000000000e+00
9.427212483223249562e-01 5.445853168963150637e-01 0.000000000000000000e+00
-1.117677611452614350e-01 6.021455293769494288e-01 0.000000000000000000e+00
4.625443757979066373e-01 5.611875734319944353e-01 0.000000000000000000e+00
6.435849895788013919e-01 6.011126261070680599e-01 1.596927970217528747e-01
3.530771140139408182e-01 6.167453350796010536e-01 2.762157352469603033e-01
1.766941867558776691e-01 5.787280473917337797e-01 3.886108286149938529e-01
8.333894856419252761e-01 4.944035026996127513e-01 0.000000000000000000e+00
6.503848143886745703e-01 7.068212281187964408e-01 6.420748758682093271e-01
-2.702367630691027145e-02 3.365822640272604360e-01 0.000000000000000000e+00
3.411860480096398085e-01 7.000796952893117986e-01 2.260181374634515628e-01
6.418116524451538130e-01 5.925685524353546674e-01 0.000000000000000000e+00
8.833217286149541714e-02 4.131235185751510608e-01 0.000000000000000000e+00
5.265957627894074511e-01 3.257685765999824845e-01 6.055157185679115317e-01
4.138376770729986776e-01 7.109730863366823250e-01 5.664831628168215394e-01
4.268012139504637759e-01 2.740462290998313399e-01 2.994599623512222974e-01
5.457951527893118993e-01 4.659307112423363151e-01 0.000000000000000000e+00
2.140291453366437446e-01 2.806119130589832533e-01 1.759287045742982114e-01
3.344161174998185881e-01 2.922079990133055194e-01 3.083233941362983899e-01
9.414329723503591651e-01 7.266052087900123357e-01 2.592886964462762789e-01
7.460915717700444816e-02 6.361323298224411671e-01 2.041802127268385059e-01
3.931287989182350451e-01 3.677276676312239978e-01 0.000000000000000000e+00
7.183358804942047149e-01 6.682925543719134831e-01 1.008980039280954477e-01
-8.354443832964419947e-02 5.446220802257651927e-01 0.000000000000000000e+00
3.677533579857488188e-01 4.750232099075448744e-01 0.000000000000000000e+00
3.827951160173128642e-01 3.910841398900333221e-01 0.000000000000000000e+00
5.110364593228379215e-01 1.799390491069206011e-01 3.145883808601768195e-01
8.037056624033764862e-01 5.591532357878006287e-01 5.021457104317383902e-02
4.191788384645263044e-01 5.903288677670789353e-01 2.628595695944341282e-01
5.096716160094577619e-01 4.068479348718383459e-01 0.000000000000000000e+00
5.947598130204773126e-01 4.148550640311059468e-01 0.000000000000000000e+00
8.800171725987353533e-01 5.656438206348783915e-01 0.000000000000000000e+00
4.404275410351241593e-01 4.409442967333982999e-01 0.000000000000000000e+00
7.703439009304452467e-01 2.999691861659377068e-01 0.000000000000000000e+00
1.686056788215034574e-01 4.987275260248289488e-01 0.000000000000000000e+00
4.491563911475811022e-01 5.124460661903458281e-01 0.000000000000000000e+00
7.039471511776241863e-01 6.205734086363996482e-01 0.000000000000000000e+00
4.515130725797878997e-01 5.077581976998928326e-01 1.230277371534614916e-01
3.007381720976831652e-01 4.671365252372563504e-01 0.000000000000000000e+00
3.028025744600002511e-01 6.014860847794589738e-01 0.000000000000000000e+00
6.545460393918468567e-01 6.319160578581469734e-01 8.636261772314091090e-02
7.217991831611707543e-01 4.708950612703759475e-01 0.000000000000000000e+00
4.543379385531143289e-01 4.268185120838371427e-01 0.000000000000000000e+00
4.320237238391416712e-01 2.344400918374982545e-01 0.000000000000000000e+00
3.531599148650645947e-01 6.358560637193026999e-01 0.000000000000000000e+00
5.845482525695027132e-01 3.953594521213503743e-01 3.696608693015670521e-01
6.085510432052998464e-01 7.963925584182495188e-01 3.021633658798299482e-01
2.738049957005388446e-01 3.135160830880769911e-01 6.678720939940718804e-01
8.448587442866068997e-01 4.203187295459744899e-01 4.596968609524927363e-01
3.637360530043254325e-01 5.514165154758458032e-01 5.176279386654489834e-01
5.671873648986045513e-01 5.298076483334008824e-01 2.537205176132795170e-02
6.845621329239662822e-01 6.418977667332579351e-01 0.000000000000000000e+00
4.723133559224867994e-01 4.633592902431742377e-01 0.000000000000000000e+00
3.703870682923384727e-01 5.105357169335559275e-01 0.000000000000000000e+00
6.775875364853390925e-01 4.947269382556158668e-01 4.140510750072521340e-01
4.727195749116980261e-01 3.227709385643728890e-01 3.293396297935708983e-01
5.601227447781964575e-02 5.219245989202557778e-01 0.000000000000000000e+00
5.481671933277117992e-01 3.603862768275238881e-01 1.425390149101034565e-01
4.749118755480454812e-01 2.961333404219539389e-01 0.000000000000000000e+00
1.208586820520660687e+00 6.531007354876323667e-01 0.000000000000000000e+00
1.071276472822097148e+00 6.991583659847623311e-01 0.000000000000000000e+00
4.615307667824037896e-01 4.650975172272968639e-01 3.573607555083406773e-01
-7.678388769567345840e-02 8.101410495651955035e-01 0.000000000000000000e+00
5.360229352825779392e-01 4.684298447088012241e-01 0.000000000000000000e+00
2.428381546379957401e-01 6.146742231336814744e-01 0.000000000000000000e+00
1.292978892255875145e+00 5.674059481987214770e-01 0.000000000000000000e+00
1.372964566993000179e-01 5.894908043546621679e-01 0.000000000000000000e+00
2.526317432053861722e-01 7.445449918143581813e-01 0.000000000000000000e+00
3.942102994786662595e-01 2.919262300278897548e-01 0.000000000000000000e+00
5.347009712030450501e-01 3.705183695590865689e-01 3.406317204987798775e-01
5.434272177669995374e-01 4.007160763978898643e-01 0.000000000000000000e+00
2.770369970454069630e-01 6.773324931284271377e-01 1.244776855425138162e-01
3.352541017739509854e-01 3.227148388397536038e-01 2.921787976515433094e-01
3.203273186172352904e-01 5.160062872530428724e-01 3.924604137384017921e-01
3.400036264016521592e-01 7.313402031130443737e-01 0.000000000000000000e+00
2.188605883399245000e-01 3.800763974914650456e-01 1.927953514270663860e-01
5.389725385140551328e-01 3.606514163104004300e-01 2.782345316600733920e-01
4.301481979979921988e-01 4.039285855965975003e-01 4.682502577095948304e-01
5.108786702051403283e-01 3.405235119664108412e-01 0.000000000000000000e+00
6.518892310551601676e-01 3.367937183692479852e-01 0.000000000000000000e+00
3.475724961142370173e-01 1.817568364246479051e-01 0.000000000000000000e+00
5.608638437428292711e-02 3.020538192639363739e-01 3.743971227766133003e-01
6.507454130858388863e-01 6.424271267448042888e-01 0.000000000000000000e+00
1.253869055663802135e-01 3.125398950785591712e-01 0.000000000000000000e+00
6.893177771620428995e-01 3.710236267353128614e-01 0.000000000000000000e+00
8.582291291672137223e-01 8.399330709553711749e-01 0.000000000000000000e+00
9.913885581706701755e-01 5.620457821356649175e-01 0.000000000000000000e+00
7.144630630676753746e-01 5.630705351001618064e-01 3.554713911877549481e-01
4.572615512733950727e-01 2.856578954428152795e-01 0.000000000000000000e+00
2.106277556315182542e-01 5.623625629329821463e-01 4.940281954617871119e-01
6.104511340751905824e-02 4.313756476740449042e-01 4.669282954284372789e-01
8.557493463652552368e-01 2.824007459328974345e-01 0.000000000000000000e+00
3.220784616381688892e-01 7.092733536008239970e-01 0.000000000000000000e+00
3.759178333422523721e-01 4.429890230615055602e-01 6.668420590442180051e-01
4.447237098699440283e-01 3.794133410898716807e-01 0.000000000000000000e+00
6.780420903802855115e-01 5.608703783065811521e-01 0.000000000000000000e+00
2.073174365884624670e-01 9.070402659615436347e-01 0.000000000000000000e+00
3.683440616522370981e-01 5.137569914130581950e-01 0.000000000000000000e+00
4.658928019736877646e-01 6.323451494032400477e-01 0.000000000000000000e+00
2.892956374617530191e-01 2.140050035061044076e-01 3.922740314134455231e-01
4.972560142902571201e-01 3.394433910806256005e-01 5.009265935485044396e-01
3.705477299719408535e-01 5.615839436582324984e-01 2.803432793470397311e-01
7.455458521857094567e-01 5.167527332127859196e-01 0.000000000000000000e+00
-1.512802868756373265e-01 5.518840218801299713e-01 0.000000000000000000e+00
-8.841839098396109264e-02 5.436685804363662333e-01 0.000000000000000000e+00
2.027785188977978548e-01 5.623190483861962852e-01 0.000000000000000000e+00
4.985164885167872040e-01 3.246048095890003982e-01 0.000000000000000000e+00
5.094081299156351106e-01 3.046489718286427006e-01 0.000000000000000000e+00
5.268020628543879091e-01 4.779180799173438077e-01 0.000000000000000000e+00
6.128424615754018978e-01 2.660947131866027160e-01 3.353087918576437287e-01
2.176066207577130873e-01 3.870419481119220517e-01 0.000000000000000000e+00
6.595096645410326586e-01 6.884895980901682977e-01 3.956772958888709057e-01
8.376131941412749971e-01 6.065836335959985393e-01 0.000000000000000000e+00
4.091147810213442426e-01 4.936118890925456082e-01 0.000000000000000000e+00
-1.074748998162184943e-01 7.288684013413344598e-01 0.000000000000000000e+00
2.743574308342779933e-01 6.629897316150736852e-01 0.000000000000000000e+00
4.441920273762882676e-01 -1.253161983774098154e-01 0.000000000000000000e+00
7.044704971918474001e-01 5.923886950628572956e-01 0.000000000000000000e+00
8.589212892467776861e-01 6.427007753901389231e-01 3.072372631606252735e-01
3.289368472279663447e-02 5.660447575134450737e-01 6.329905430012250367e-02
3.377374673651932779e-01 4.004629943240964884e-01 2.944267927994994594e-01
3.700129318934695100e-01 3.956994586519213541e-01 2.368583728215198914e-01
6.640736362226286049e-01 8.076091413836558042e-01 0.000000000000000000e+00
1.390305872923781605e-01 3.059198408903889277e-01 0.000000000000000000e+00
3.761299378268361249e-01 3.992703796162518914e-01 2.810037622310903593e-01
3.312056585159572908e-01 3.841998771864647555e-01 0.000000000000000000e+00
5.066750776590538408e-01 8.514110520741757782e-02 0.000000000000000000e+00
7.106353119790741468e-01 5.271445969315501356e-01 1.850527540710955599e-02
5.753233073651332630e-01 3.812732101793900874e-01 0.000000000000000000e+00
-1.845801377053524206e-01 8.349573036788945357e-01 0.000000000000000000e+00
3.958606068755824436e-01 3.179754998060075888e-01 5.293866819476543695e-01
5.566985189538765644e-01 6.418457827183180475e-01 2.779531415600450250e-01
5.334084020305640550e-01 7.137134569336546219e-01 0.000000000000000000e+00
2.072361024446708333e-01 9.598578677966340678e-02 3.673576467410797353e-01
-2.999229390765978387e-01 8.041503977961353966e-01 0.000000000000000000e+00
6.342480286603701112e-01 4.575213202905473731e-01 0.000000000000000000e+00
5.476514373942713565e-01 2.572714361513162018e-01 4.052059396853927575e-01
8.629796718922948529e-01 3.789716019782662926e-01 0.000000000000000000e+00
5.001780511081057590e-01 4.520599186574392192e-01 3.008658766535017293e-01
6.298141919236484032e-01 5.149200505869654387e-01 0.000000000000000000e+00
8.727989662828203876e-01 6.050981442953027312e-01 0.000000000000000000e+00
4.046672980782376472e-01 3.299468117547688095e-01 0.000000000000000000e+00
7.395933644033741983e-01 5.244686126731586961e-01 3.799564963822626984e-01
6.407124934312413700e-02 5.370674125673897681e-01 0.000000000000000000e+00
4.946355475677558511e-01 6.678416338993917734e-01 3.985824968581388461e-01
5.416341887606502814e-01 3.716768898268636434e-01 3.847499704314513158e-01
2.236764111132981681e-01 7.108727823933864709e-01 0.000000000000000000e+00
6.526497144065185330e-01 5.222498611190438123e-01 0.000000000000000000e+00
2.040745385083129193e-01 6.440791164452640549e-01 0.000000000000000000e+00
3.184631756885579756e-01 5.346368542002063462e-01 2.067701031576191228e-01
1.185132515279742060e-01 4.168509240209901101e-01 0.000000000000000000e+00
7.078190725802923078e-01 1.716987498813034030e-01 4.716693026070515327e-01
4.535668967473016622e-01 4.449196318148223028e-01 0.000000000000000000e+00
3.594612121271290039e-01 7.391201224135985903e-01 0.000000000000000000e+00
9.727051957365561163e-01 8.033074212558282134e-01 0.000000000000000000e+00
8.356020721307585442e-01 3.379148715577231510e-01 3.005260948338583926e-01
7.485722139231024697e-01 4.404569680241934293e-01 0.000000000000000000e+00
1.121855564545344297e-01 3.989704660018982274e-01 5.377377293046116113e-01
5.763495837056042959e-01 5.301555694160219323e-01 7.882480934862967636e-01
-4.614538315184539830e-01 8.851845521008272488e-01 0.000000000000000000e+00
1.621730122532768492e-01 4.420929787794094512e-01 0.000000000000000000e+00
5.229594508061224944e-01 1.940859883794056051e-01 4.572052890481461684e-01
3.439539215825981877e-01 3.583786185375537059e-01 0.000000000000000000e+00
4.497715102035435564e-01 5.130136282300373773e-01 0.000000000000000000e+00
3.168843985859397527e-01 2.294994696665794143e-01 6.221475327190070237e-01
6.529666666601454672e-01 4.599822022568240687e-01 0.000000000000000000e+00