POSCAR from GenerativeModels
1.0
2.000000000000000000e+01 0.000000000000000000e+00 0.000000000000000000e+00
0.000000000000000000e+00 2.000000000000000000e+01 0.000000000000000000e+00
0.000000000000000000e+00 0.000000000000000000e+00 2.000000000000000000e+01
Ag Al As At B Be Br C Ca Cd Ce Cl Co Cr Cs Cu Dy Er Eu F Fe Fm Fr Ga Gd Ge H I In K Kr Li Lu Mg Mn Mo N Na Nb Ni No O P Pd Pm Pr Rb Re Rh Ru S Sb Sc Se Si Sm Sn Sr Ta Tc Te Ti Tm V Xe Y Zn Zr
3 9 7 1 9 8 3 14 32 7 1 30 8 7 3 3 1 1 1 23 6 1 1 10 2 10 176 2 1 9 21 25 1 19 14 4 7 17 8 12 1 15 12 5 2 1 3 1 7 4 21 1 14 7 15 1 2 5 4 3 7 9 1 15 5 2 17 1
Direct
4.670559735300447990e-01 6.663157926061034075e-01 0.000000000000000000e+00
3.894766825551658762e-01 5.670125367838019237e-02 2.411539341286814686e-01
2.874392211963923138e-01 5.312332988074260909e-01 0.000000000000000000e+00
7.538013846542086505e-01 1.971731298021568435e-01 3.056577807887446152e-01
5.168595065749851392e-01 4.539235564487673624e-01 0.000000000000000000e+00
6.394671216415487303e-01 -1.695082117372010977e-01 3.915639451414227867e-01
3.710372959713552632e-01 4.826676844112320897e-01 0.000000000000000000e+00
4.610489952877083741e-01 5.039066401910196058e-01 0.000000000000000000e+00
5.626841399101921715e-01 4.114614323841894183e-01 0.000000000000000000e+00
6.024373199833322756e-01 4.257395922443987235e-01 2.361461947707919062e-01
7.043840684054319956e-01 5.512369401428404148e-01 0.000000000000000000e+00
5.593503680598043148e-01 7.792149528036340644e-02 4.253914666217515350e-01
4.219793980540742506e-01 6.024285811832772453e-01 6.947620819711327611e-01
7.329519986215178307e-01 -6.233725744650175926e-02 0.000000000000000000e+00
1.136974270974687728e+00 3.852232410805209728e-01 0.000000000000000000e+00
3.008249897446639842e-01 6.478253974461589682e-01 0.000000000000000000e+00
4.678764237165395912e-01 4.713585943378979515e-01 2.458066301594501457e-01
7.168096361501579139e-01 4.713092784397245882e-01 0.000000000000000000e+00
7.827246165779785381e-01 5.621391292994408762e-01 0.000000000000000000e+00
4.762868055123745670e-01 7.812556143101812012e-01 3.948467332889973314e-01
6.203274051731920702e-01 2.564235152997489386e-01 0.000000000000000000e+00
7.178707864420590390e-01 2.118813259761451739e-01 5.046637307018898566e-01
5.187685467272439288e-01 1.312525112561537810e-01 0.000000000000000000e+00
6.760121501077801520e-01 3.469353273345199273e-01 1.784296708413436461e-01
5.294009245195859803e-01 1.784925445578229297e-01 0.000000000000000000e+00
3.181841842979813428e-01 4.454591653578836574e-01 0.000000000000000000e+00
4.581829195680479083e-01 4.256458776329246074e-01 0.000000000000000000e+00
4.102533482705377210e-01 3.378163092232751019e-01 3.868630333938598564e-01
7.021420337931789657e-01 4.078567256805984975e-01 4.024212215332463316e-01
5.372987161675556456e-01 -5.213297842230568691e-03 2.135595892681293462e-01
3.524522384784480877e-01 2.988004563156276827e-01 0.000000000000000000e+00
7.134409176978935285e-01 2.299426525882609651e-01 5.065896922388385404e-01
7.915680699828813172e-01 1.919760210194800809e-01 2.092464951470905943e-01
2.760381843943534586e-01 7.227557485780213842e-01 5.988466934640630512e-01
4.951547715745963085e-01 4.639035971049045859e-01 3.869772473913730693e-01
6.480155643212586192e-01 -1.934134988805582545e-01 0.000000000000000000e+00
4.123691297389313615e-01 7.199320544219180995e-01 3.847729554255412410e-01
4.706934396937667575e-02 4.425009645300638228e-01 4.949141405742409905e-01
5.081114147434572237e-01 2.055739029910051974e-01 0.000000000000000000e+00
6.673512911635213207e-01 2.505230807704651452e-01 5.789516687889733060e-01
4.761544496048610853e-01 2.072931044649357624e-01 0.000000000000000000e+00
6.669958384931696793e-01 6.038956808857252057e-01 2.622566915188051517e-01
3.650858206563460939e-01 4.928360470446573327e-01 6.720381010758159634e-01
5.935415233636244237e-01 3.945147694178361419e-01 0.000000000000000000e+00
7.222663900481295363e-01 -6.447720745667062658e-02 3.691209895960092524e-01
6.680893691106600807e-01 3.475343726455852877e-01 0.000000000000000000e+00
3.598763884055168338e-01 2.155250552642430373e-01 4.291928116749292865e-01
4.934707200675807481e-01 2.301151925862376935e-01 0.000000000000000000e+00
7.306809627773563909e-01 2.923723759996617044e-01 5.514460864899413117e-01
4.050474635096856790e-01 5.865402349281800820e-02 2.992792161188115863e-01
5.437025770931243063e-01 1.100829814343199375e-01 1.624428095163460428e-01
4.938693654603814043e-01 5.099519372408816142e-01 3.556576895569123486e-01
7.193826332212144292e-01 4.594818844590617957e-01 0.000000000000000000e+00
6.340769448148609877e-01 3.766914726262025059e-01 5.426416587072067088e-01
8.770290170002831287e-01 3.836635344654870661e-01 0.000000000000000000e+00
6.332293420728507538e-01 5.777502633756633754e-01 5.483298559434103270e-01
8.166325224217454437e-01 4.261344559960380529e-01 0.000000000000000000e+00
5.643742463412543264e-01 3.157422393222231172e-01 3.309339371324122592e-01
6.134955672940791693e-01 2.752708205889163873e-01 4.210454947461006459e-01
6.944798078024342347e-01 2.196994596702992464e-01 9.006846957200298487e-02
8.600591126316334822e-01 4.498583298157710075e-02 2.568098212632969890e-01
8.814938696350740344e-01 5.110518540568890211e-01 3.445229766005450944e-01
7.030038511386530464e-01 6.193996768758036620e-02 0.000000000000000000e+00
2.245475043143200233e-01 5.500318052751919096e-01 0.000000000000000000e+00
1.137254407066947914e+00 -1.391785106050291709e-02 2.997120636064198873e-01
7.448463235160749374e-01 5.015407949464806281e-01 0.000000000000000000e+00
3.374398161222742498e-01 1.968369459350917117e-01 0.000000000000000000e+00
5.477610043844498566e-01 2.287585687043691696e-01 0.000000000000000000e+00
4.184082307098739850e-01 1.094928333811501231e-01 0.000000000000000000e+00
3.783399784084203743e-01 2.499871335857776211e-01 0.000000000000000000e+00
5.638960750517393317e-01 5.190030185238222460e-01 3.911612572485974049e-01
4.017168653533802480e-01 3.784725637095252004e-01 0.000000000000000000e+00
1.014240648114732801e+00 5.094540779971755695e-01 0.000000000000000000e+00
9.010738969111520280e-01 3.734971280583783138e-01 5.002380687963881023e-01
4.481395223085957724e-01 4.225232223950963206e-01 3.593140569185454547e-01
4.992535199973029414e-01 2.937010267252834206e-01 0.000000000000000000e+00
1.152577064518213623e+00 1.708268297958838167e-01 3.652941428126414980e-01
4.313870734651430450e-01 4.778041866539814997e-01 2.721335635173036671e-01
5.964907308658946583e-01 3.962561017812451514e-01 0.000000000000000000e+00
2.274779874378392019e-01 7.137713855116090134e-02 1.052762222957986937e-01
4.543250150340485405e-01 6.349250073217630463e-01 1.911783989229376424e-01
2.840417470109999343e-01 7.689083688600526489e-01 5.079431700922119042e-01
5.005596826335628746e-01 2.523147621108883243e-01 4.667310666187624024e-01
8.820499945773095929e-01 4.809883402114105699e-01 3.190877377004008864e-01
7.582740371015264103e-01 2.750020703763222940e-01 0.000000000000000000e+00
5.476149548966883218e-01 4.356066387813566365e-01 0.000000000000000000e+00
2.339907910311069816e-01 3.667175836040902359e-01 4.347439114263864646e-01
7.238431707352718236e-01 2.656662404859357896e-01 0.000000000000000000e+00
5.740876287006981826e-01 5.183333641767341460e-01 0.000000000000000000e+00
2.883573757463242515e-01 1.333580689631509442e-01 0.000000000000000000e+00
4.079702427038487400e-01 1.307446327547527876e-01 0.000000000000000000e+00
4.725140026409686556e-01 2.518581947074574057e-01 5.315564454901591240e-01
3.207236378485960326e-01 2.733325571438385282e-01 0.000000000000000000e+00
3.338475834332290670e-01 6.469504490386981388e-01 4.285266493536921129e-01
5.991310118806323359e-01 7.177877480393213272e-02 1.235016328696501020e-01
3.653143847820805590e-01 5.716129745430325038e-01 1.623447280776805224e-01
9.260004975452809095e-01 5.639602157170813257e-01 0.000000000000000000e+00
7.838347505954685879e-01 7.060820629738846499e-01 0.000000000000000000e+00
-1.697466970849648149e-02 3.709782152802745259e-01 0.000000000000000000e+00
7.536537412711532546e-01 4.621289559320624907e-01 5.726394145950606251e-01
7.149884852565313587e-01 4.355589212603745430e-01 2.827703015073259607e-01
9.046252377859342886e-01 2.095796494030395252e-01 0.000000000000000000e+00
5.275227352044382645e-01 5.887388628362301146e-01 0.000000000000000000e+00
5.421267874072455140e-01 3.546589008036773460e-01 0.000000000000000000e+00
5.780708996581733761e-01 4.177179688719473427e-01 0.000000000000000000e+00
3.504027065748542835e-01 2.713850749763406789e-01 0.000000000000000000e+00
8.025423593791821686e-01 5.773178239174130422e-01 0.000000000000000000e+00
4.860321778433807083e-01 3.063850133598549075e-01 3.444337581989620478e-01
1.863408490108441340e-01 3.393649703931993500e-01 5.032972473719066198e-01
4.803889869705337823e-01 -5.227428790825938698e-02 0.000000000000000000e+00
4.961913444121321959e-01 2.807280151598042783e-01 2.321356556135900640e-01
8.255859216576892923e-01 5.701715359343144662e-01 0.000000000000000000e+00
6.660805417356411295e-01 2.430452283168632599e-01 0.000000000000000000e+00
6.619918876675323638e-01 5.579803072126310326e-02 0.000000000000000000e+00
1.346900559519255136e-01 -1.689314709072546883e-01 4.071554961216312662e-01
3.112903186949071976e-01 3.076270573347161807e-01 0.000000000000000000e+00
1.079193293023057443e-01 7.057236615882923614e-01 0.000000000000000000e+00
-3.289932740829832891e-01 6.898173828282065934e-01 0.000000000000000000e+00
7.468590928010671037e-01 2.895656531352941432e-01 1.752240327184186874e-01
4.902147920543606929e-01 4.253113329681050825e-01 0.000000000000000000e+00
5.501486344160794184e-01 4.374554466844389200e-01 0.000000000000000000e+00
8.315812992261103487e-01 4.083334904016140410e-01 3.901389609742635933e-01
4.314518143054268950e-01 6.485265394153463259e-01 2.523566387776514652e-01
2.947537539793823047e-01 2.104667204866159658e-01 1.453022720124169664e-01
4.056621966901370335e-01 2.391857053035244540e-01 0.000000000000000000e+00
5.760681768716989781e-01 4.387859436488577014e-01 0.000000000000000000e+00
3.994103166331131050e-01 3.480468981431560360e-01 0.000000000000000000e+00
7.215407230469275124e-01 5.214380651130532396e-01 0.000000000000000000e+00
4.802158556652520449e-01 2.989455177092799065e-01 0.000000000000000000e+00
4.201645123932087333e-01 2.813535353170661946e-01 0.000000000000000000e+00
4.385600210409399402e-01 4.282437385381807626e-01 0.000000000000000000e+00
4.709642061246440692e-01 1.632235293312399582e-01 3.408118490609832740e-01
6.293820891729464684e-01 4.558128340602420892e-01 0.000000000000000000e+00
5.238733036651603836e-01 7.573661393147079757e-02 4.346953813527882904e-01
4.904784888968618528e-01 2.076585969336176563e-01 0.000000000000000000e+00
7.397742217990730396e-01 1.496285644057321340e-01 0.000000000000000000e+00
3.026882158016737101e-01 3.841121256815849261e-01 3.221317591951964321e-01
5.075852791801457320e-01 9.431871871874224489e-01 0.000000000000000000e+00
5.820167438213820210e-01 4.920776426323136832e-02 0.000000000000000000e+00
3.014158853139645711e-01 2.238938809456386680e-01 0.000000000000000000e+00
7.502443709099804181e-01 -6.856465781063447729e-02 7.764393136011038532e-02
9.534548588255639112e-01 4.239501091534256805e-01 5.011458240407790088e-01
1.021577277081626933e+00 1.659174938925370713e-01 3.661534804444381841e-01
6.484711252392223457e-01 7.750825104632464990e-01 1.701455892251091395e-01
5.301319323480132573e-01 4.617388688526873342e-01 0.000000000000000000e+00
4.094614782502865591e-01 8.890589519630587301e-02 1.718268447508966013e-01
6.108216190715681781e-01 1.567468000247880244e-01 0.000000000000000000e+00
8.067880492169985374e-01 3.129218712845536210e-01 0.000000000000000000e+00
1.091512453698546325e+00 7.178036432946249823e-01 0.000000000000000000e+00
1.543951414913070641e-01 1.729316793435451416e-01 0.000000000000000000e+00
8.633432393858813114e-01 6.476332360850489689e-02 3.923906194673965064e-01
2.259621672497054146e-01 3.391815402417703851e-01 3.321175848544160036e-01
5.299845446285154082e-01 3.710286835519316373e-02 2.169102428600097054e-01
1.874435383412712541e-01 4.038042450148191520e-01 0.000000000000000000e+00
9.939465258311520612e-01 6.286059776200639826e-01 0.000000000000000000e+00
4.813372466571876895e-01 2.708574701007731012e-01 0.000000000000000000e+00
4.695204643007666601e-01 3.952255485543050284e-01 0.000000000000000000e+00
5.773355990853198394e-01 3.122158403180952391e-01 3.061098942654317812e-01
5.737315604351393983e-01 1.656062057993689107e-01 0.000000000000000000e+00
9.737593805157654936e-01 4.233430954926897805e-01 0.000000000000000000e+00
3.918166467961139432e-01 1.550522733979896595e-01 3.602894096911395394e-01
9.888853129230457117e-01 6.846536372618998723e-01 1.004179277318268948e-01
2.683555674677152725e-01 4.299181808445841080e-01 0.000000000000000000e+00
7.557979607899339980e-01 3.352999860861463066e-01 4.853861473929830250e-01
5.296799616948580924e-01 1.944771332127330776e-01 0.000000000000000000e+00
4.703681743579160024e-01 3.819644289249048974e-01 3.732721784590233849e-01
4.910730213937160027e-01 3.037859724352232060e-01 0.000000000000000000e+00
6.046636719729893139e-01 -1.599473932546451316e-01 0.000000000000000000e+00
2.430915512408259316e-01 5.101342521847919143e-01 8.035952534693213689e-02
4.570554509553630407e-01 2.878950334303396197e-01 3.806888280766581589e-01
6.710583313226048396e-01 5.570413858485238068e-01 6.295482783384944714e-01
2.501999086511830228e-01 5.238058839138109990e-01 2.015004456325892868e-01
6.950277064291505713e-01 2.130744490477251007e-01 2.285217474615948152e-01
2.749355856409239074e-01 4.723851499456259706e-01 0.000000000000000000e+00
2.250785093753702171e-01 5.860658822531737977e-01 0.000000000000000000e+00
5.617113853317007299e-01 3.984064762463961351e-01 0.000000000000000000e+00
8.064698342594347480e-01 1.502465596694582128e-01 2.683384442612464227e-01
6.325013205972909169e-01 7.999468089288538364e-01 3.702701132890400260e-01
8.090122613988882661e-01 1.243470869509583077e-01 4.760717022074061333e-01
6.031736810080821076e-01 3.634110443356082243e-01 0.000000000000000000e+00
7.586655482531791117e-01 4.262491744868570631e-01 4.212489193905581963e-01
1.726646244617433545e-01 6.566928058993313222e-01 4.154046029971878440e-01
5.311541361255135429e-01 -9.455564482222400535e-02 1.885959145797162506e-01
5.660449378192834446e-01 2.781326773574337441e-01 2.718071999852820220e-01
7.636555999717713483e-01 -2.846813582727447667e-02 0.000000000000000000e+00
3.209191642550255352e-01 4.458978525050476538e-01 0.000000000000000000e+00
1.818367180535835903e-01 4.737870831321131515e-01 0.000000000000000000e+00
2.476441634633166355e-01 4.289361488136960165e-01 4.315798617378524549e-01
3.299797067897383140e-01 6.838805368595268774e-02 0.000000000000000000e+00
6.932451696578141309e-01 1.766118296292107370e-01 3.439886314613642693e-01
5.269190171272059020e-01 5.511763161417170265e-01 0.000000000000000000e+00
6.344331490697681097e-01 2.026682208590725454e-01 3.684614935948555825e-01
6.744567612686472868e-01 3.591308573080572719e-01 0.000000000000000000e+00
2.192893829335488265e-01 -1.458541657248713097e-01 6.567779714453950701e-01
5.437518371499341363e-01 3.420624993507610512e-01 0.000000000000000000e+00
5.704689643991457393e-01 2.091766815594721107e-01 0.000000000000000000e+00
3.584221860653551417e-01 3.118253758835101141e-01 0.000000000000000000e+00
7.643273958203682383e-01 2.794932200978936798e-01 3.363623430452087337e-01
1.153027198364745542e+00 3.425372135685942343e-01 3.772028028528695565e-01
5.127795026947674639e-01 1.510881242494110932e-02 0.000000000000000000e+00
4.355650742190322333e-01 -4.197759547095758492e-02 0.000000000000000000e+00
3.977715372697940843e-01 2.835186884475413560e-01 7.011229347607237372e-01
5.434687452782630546e-01 1.494072321802276671e-01 0.000000000000000000e+00
3.760950642644884656e-01 8.108447109637462180e-02 0.000000000000000000e+00
9.310096445425770639e-01 2.028239065281196574e-01 4.914889631913277324e-01
4.405630078185169829e-01 4.905445209788377170e-01 0.000000000000000000e+00
9.239677585801453485e-02 5.008686440759959613e-01 0.000000000000000000e+00
5.205969392735374512e-01 8.708448653072931034e-02 4.942622283788877802e-02
4.782175646797128810e-01 1.285915152196824840e-01 3.958876780074964685e-01
2.228930019260054740e-01 4.261590030749472513e-01 3.715330832134173811e-01
6.603421111403863231e-01 3.644437640423152658e-01 4.135626574269299915e-01
6.636277824405405479e-01 1.925693533226644494e-01 0.000000000000000000e+00
4.080401749985671511e-01 2.170038466815913392e-01 0.000000000000000000e+00
5.636254726738387788e-01 2.928015454543448914e-01 0.000000000000000000e+00
1.143218873655662549e+00 6.093188372746951575e-01 2.058767569150652399e-01
4.152376069427301530e-01 4.339075503351126351e-01 0.000000000000000000e+00
4.997212209907864189e-01 5.885757435549897609e-01 6.111859935422450096e-01
3.505751272111394812e-01 3.876558377158840774e-01 0.000000000000000000e+00
6.595722904486204241e-01 2.121615533966880740e-01 1.846039692693514089e-01
6.181762907084915604e-01 2.801371408750810144e-01 2.840258237113193474e-01
5.995208199110315661e-01 1.771319526700467772e-01 5.242788174781128907e-01
4.916309101183983232e-01 2.937758803152945575e-01 3.487990097280526669e-01
6.034049476669148815e-01 3.351201873200662096e-01 0.000000000000000000e+00
8.072287683254663060e-01 4.760169317956730595e-01 0.000000000000000000e+00
2.875853868296514015e-01 1.833881602243428999e-01 1.651355165179579920e-02
3.227349793825262658e-01 2.932425512484941876e-01 3.504619304723279871e-01
1.181114221473263060e+00 6.553144750699237964e-01 0.000000000000000000e+00
6.581515730003939524e-01 1.267229832182833471e-01 0.000000000000000000e+00
5.482314357301528718e-01 5.121034318206810765e-01 0.000000000000000000e+00
5.281836124923524611e-01 -2.354000447655604233e-01 0.000000000000000000e+00
2.948445509998319780e-01 4.522116717220785453e-01 0.000000000000000000e+00
5.237578412598925537e-01 2.513007740869332984e-01 1.575219489922037308e-01
2.534382604759320978e-01 6.167199162056189454e-01 4.343396572689371959e-01
5.916534277620042470e-01 3.501338364289245941e-01 4.875675797127754230e-01
5.764435046111432426e-01 4.047723581760794831e-01 3.204591590613108387e-01
3.340835123609287027e-01 7.850500727673398460e-01 4.105173311910168543e-01
3.940156090518744936e-01 4.623149312082133200e-01 6.239193807868066433e-01
3.522590525978774867e-01 2.045007820847516422e-01 0.000000000000000000e+00
4.791354250127768388e-01 3.809658219681349989e-01 0.000000000000000000e+00
6.928845038415065716e-01 3.360806751809231052e-01 0.000000000000000000e+00
4.839958928523062642e-01 6.736595057530871955e-01 0.000000000000000000e+00
3.832770594092762551e-01 5.314712305893741773e-01 0.000000000000000000e+00
7.756867980058600454e-01 3.484405278012503437e-01 0.000000000000000000e+00
4.189834362207929264e-01 1.175834834909192939e-01 0.000000000000000000e+00
4.522479179816555339e-01 6.668523699407042926e-01 3.723989131622396087e-01
6.632967103773430573e-01 1.912124887374400117e-01 4.848808992619073610e-01
8.087085269998317560e-01 2.650261574871226600e-01 0.000000000000000000e+00
3.343741114109155532e-02 5.512025338015970055e-01 0.000000000000000000e+00
3.825889311061603237e-01 2.047155402120471868e-01 5.125730190170717515e-01
9.008492045895231115e-01 6.850355339945589650e-01 2.191265234746804236e-01
3.847605624762895360e-02 6.965966005127133265e-01 0.000000000000000000e+00
5.818801121496273154e-01 1.859033003105081683e-01 0.000000000000000000e+00
6.956727935746100933e-01 7.414683157111596756e-01 1.573664714079066052e-01
5.377680478846612599e-01 7.203833328175679451e-02 0.000000000000000000e+00
1.654970305207383863e-01 4.818670667572841904e-01 0.000000000000000000e+00
7.032922437929768344e-01 5.532514914220931779e-02 3.234782569128291652e-02
6.953773937817695483e-01 7.327832443166160115e-02 2.896721089132485716e-01
4.594445299265746963e-01 2.901816438931184017e-01 0.000000000000000000e+00
3.457468814744397712e-01 4.155760764454135003e-01 6.699615449550947455e-01
3.030825673859244285e-01 1.989759391792814691e-01 0.000000000000000000e+00
8.361670726228412898e-01 4.380448709351827397e-01 4.479619539603112433e-01
5.138519250472790567e-01 2.166324933513519291e-02 0.000000000000000000e+00
6.776283287247134579e-01 3.940207689915073974e-01 2.820236556885532542e-01
6.662861931352845879e-01 2.688206018087719862e-01 0.000000000000000000e+00
9.184603714496782922e-01 8.144547653302565138e-01 0.000000000000000000e+00
4.581868109825265600e-01 1.414713650462349204e-01 3.168881955615621138e-01
6.007517557914335837e-01 4.559307442752469353e-01 0.000000000000000000e+00
4.710571657166167103e-01 1.394362910935528221e-01 0.000000000000000000e+00
8.786049602064986974e-01 4.913821304931840217e-01 0.000000000000000000e+00
5.170892520133228976e-01 8.084857475460938137e-02 4.814112144432729501e-01
4.061743248490197189e-01 3.409599076463127876e-01 3.651881072159439690e-01
5.386663584349900002e-01 -1.705490577809627428e-01 0.000000000000000000e+00
7.819257982037841614e-01 6.148947471490718852e-01 0.000000000000000000e+00
1.969999371660361431e-01 5.321806685191243780e-01 4.803633961962199272e-01
6.503080730626625838e-01 1.346327866423716602e-01 0.000000000000000000e+00
5.505485038127025943e-01 5.360487039192237679e-01 4.017620879986285587e-01
4.531017562546151289e-01 -2.853545932212349090e-01 0.000000000000000000e+00
2.804192574628819878e-01 4.932145247156537460e-01 0.000000000000000000e+00
2.438573507286065922e-01 3.003059879226386286e-01 5.448339518907083789e-01
5.579748991568397321e-01 1.218646753920965553e-01 5.903578307872699993e-01
6.851908703235878306e-01 1.954495421905654284e-01 0.000000000000000000e+00
2.942842342542306699e-01 -6.019821384709986845e-01 0.000000000000000000e+00
6.378805803623058823e-01 2.883127595970343959e-01 0.000000000000000000e+00
5.842558170979154086e-01 4.819472106356658125e-01 0.000000000000000000e+00
2.409175318997230919e-01 5.087377675111361963e-01 6.355036955384981701e-01
7.085013100997886726e-01 9.603110383714574816e-02 3.292988339999697311e-01
3.401097177430831842e-01 3.220719332253219047e-02 0.000000000000000000e+00
3.475176140895208654e-01 4.152500229231443907e-01 3.332011673496058091e-01
7.622894724936830624e-01 5.322843244625810044e-01 3.495738835582700155e-01
9.555941933963503221e-01 3.552121247706363505e-02 3.976621991902939968e-02
6.714199964443711144e-01 6.013491094487114497e-01 4.516149478524478234e-01
5.757240191665008444e-01 2.666716176055732301e-01 2.865004223476185219e-01
7.010482667148544289e-01 -4.041762720992170266e-02 0.000000000000000000e+00
5.696786160487838924e-01 7.000691459480790080e-02 4.592919216417549189e-01
3.958892678264023246e-01 4.071785370491066702e-01 0.000000000000000000e+00
4.909899204870177281e-01 1.971740268274557728e-01 0.000000000000000000e+00
5.404249028849938963e-01 5.026180517884862864e-01 0.000000000000000000e+00
4.224124656949845846e-01 4.083072547230510718e-01 4.672207285253047182e-01
7.854305483126630127e-01 3.742714313387374148e-02 1.187439560913996495e-01
5.774672441280961355e-01 2.807769224253728879e-01 0.000000000000000000e+00
4.655398600053306524e-01 4.039887554305312545e-01 0.000000000000000000e+00
4.842290141552878513e-01 1.163238986560987120e-01 0.000000000000000000e+00
3.486692059500764440e-01 3.527591693278462337e-01 0.000000000000000000e+00
7.996955192742664087e-01 6.057478003636802555e-01 5.331497903456409171e-01
8.924551420503807897e-01 2.190567717043119256e-01 3.984721001659385919e-01
8.100914437224517872e-01 4.230250274346631922e-01 5.898851693474759239e-01
4.858805378185754309e-01 -1.499778973365366586e-01 0.000000000000000000e+00
1.454900993733124759e-01 3.715352476032376394e-01 4.407886086776195977e-01
1.826232988882159347e-01 7.500002356752677457e-01 4.096437146636504600e-01
3.743128945416696052e-02 3.043692189518427682e-01 5.163016174842626205e-01
3.658270179778713160e-01 5.298123270343784164e-01 0.000000000000000000e+00
4.961256009855945504e-01 3.304312461622044284e-01 0.000000000000000000e+00
5.295383862506286565e-01 1.349384600355142405e-01 4.108102130501147808e-01
3.491326647816331841e-01 4.855543742765573434e-01 0.000000000000000000e+00
3.499787959215940880e-01 -1.234119673166576003e-01 0.000000000000000000e+00
4.248772434923082653e-01 2.686741538397334761e-01 1.111756259590352958e-01
5.450949474255262217e-01 3.064699945724611574e-01 3.517284913820772907e-01
5.359297470756033688e-01 5.660461141582892042e-01 0.000000000000000000e+00
7.283667769272375025e-01 7.808620789863335299e-01 1.525450964505248308e-01
7.468247134731753611e-01 6.930163935617708049e-01 4.165272457021791386e-01
5.748383217471962903e-01 4.540681244323212518e-01 3.048478431857166715e-01
9.013782365639052552e-01 3.861416621620964440e-01 0.000000000000000000e+00
6.496012262969399487e-01 3.636096341564198919e-01 5.250106386847337436e-01
3.943451002621536361e-01 2.301053774134500518e-01 9.744800965709465856e-02
4.432826566725746043e-01 1.941140137042585145e-01 2.107337596924182543e-01
3.576518306208091857e-01 1.889469522689778413e-01 0.000000000000000000e+00
4.519016985448724988e-01 3.867431927648805612e-01 0.000000000000000000e+00
7.571722839103719460e-01 1.819638521626315564e-01 4.548859190794052321e-01
5.280665228800758282e-01 4.253745072028094487e-01 3.379659407096222701e-01
5.165721175673640975e-01 4.358288345628077431e-01 0.000000000000000000e+00
2.438581423880091803e-01 1.732591219692803941e-01 3.965130847889650756e-01
8.218532865360439477e-01 3.860110959493280314e-01 0.000000000000000000e+00
6.697757141671731862e-01 1.844980604322932205e-02 1.594938108656023257e-01
4.235446814202399324e-01 4.270482512787016072e-01 0.000000000000000000e+00
7.510061939866159442e-01 6.092735617511818580e-01 0.000000000000000000e+00
4.994487524638953069e-01 9.780003202902864956e-02 0.000000000000000000e+00
5.226428821254934798e-01 4.672913362616613053e-01 0.000000000000000000e+00
7.037912876806764473e-01 5.562110478724224816e-02 3.039261497969392156e-01
4.742873460750516301e-01 2.224342521202393730e-01 0.000000000000000000e+00
5.672970864587867368e-01 2.109481547275758873e-01 4.908448265068929839e-01
-4.604091050390257678e-02 5.882678609268841008e-01 1.693223689915519525e-01
3.081362422665805401e-01 1.367448130879929113e-01 5.417667401591224063e-01
6.340148251717612204e-01 4.422074372233120165e-01 4.573353272207629772e-01
1.042936979887613580e+00 3.608076826167534445e-01 5.633568600320048025e-01
3.930471266137784969e-01 1.573733454360072281e-01 3.229720987388892128e-01
3.737646965632351881e-01 3.175457168561676147e-01 0.000000000000000000e+00
1.477344755331528869e-01 6.256215954426467274e-01 0.000000000000000000e+00
5.238726905933791533e-01 3.615366111352458223e-01 2.613734085470336144e-01
6.959189374209723278e-01 1.687386972584549172e-01 4.418042206793457716e-01
5.108754808671764902e-01 5.081437355661762023e-01 3.439643833575924958e-01
6.882790443687714088e-01 9.612906124142933662e-01 2.187073369115632993e-01
3.141383134541611000e-01 3.149348205156372593e-01 0.000000000000000000e+00
7.530626494946612848e-01 2.185064444478939105e-01 1.353351675686977895e-01
8.112079476692198865e-01 6.172631027155393024e-01 1.924201013967102858e-01
5.007481186551433483e-01 5.629587632513793904e-01 0.000000000000000000e+00
3.874484083780316279e-01 2.053501885998059162e-01 0.000000000000000000e+00
3.705449987705842219e-01 5.411259813537514507e-01 2.635137504351932058e-01
5.848224711667502351e-01 -5.839634976932117638e-02 3.691415342036978853e-01
4.689974629153095265e-01 3.120988607256895975e-01 6.353499207491126732e-01
5.264978494161536293e-01 5.134874949180942005e-01 4.976222275116486404e-01
8.070112930027708575e-01 2.596645510390953593e-01 0.000000000000000000e+00
5.722073713208030155e-01 5.054185958104894238e-01 2.721907140182782125e-01
5.512885322842465685e-01 4.105183884056580190e-01 4.122873309864101277e-01
3.396785177529726418e-01 4.817984476941634675e-01 3.277475787693501230e-01
2.038200602687409990e-01 -3.649405733970194632e-01 1.974524073493273413e-01
6.440923793257953278e-01 -1.146601090448851057e-01 0.000000000000000000e+00
7.119284723666110537e-01 2.676201518161300807e-01 0.000000000000000000e+00
7.425168999344237131e-01 2.330397643638033589e-01 4.723868756995550644e-01
6.398304719448855149e-01 -2.157819320723268763e-01 0.000000000000000000e+00
3.481049933115034634e-01 8.330281888758750419e-02 0.000000000000000000e+00
5.583667667073192176e-01 -2.273657557809727336e-02 0.000000000000000000e+00
7.199544393152434996e-01 4.679664894739621328e-01 2.914155676699978770e-01
4.589074017246083104e-01 1.469745347728768081e-01 0.000000000000000000e+00
3.757693350404991417e-01 3.396997781222677038e-01 0.000000000000000000e+00
4.990144747767453204e-01 2.640715307850021176e-01 4.600383409114567890e-01
4.780921522559500314e-01 8.141290665320515263e-01 2.943583039770580889e-01
7.537942227031286802e-01 5.966120591969287235e-01 4.315020866640898456e-01
4.497557019505907805e-01 3.587158221205238862e-01 5.217847451081620846e-01
2.376147570092170813e-01 8.683076965426728133e-02 0.000000000000000000e+00
4.542239180760572204e-01 6.703045846446741285e-01 2.018409536736383014e-01
5.373369215658321263e-01 3.338390726915292372e-01 1.926478943479572603e-01
5.266881056446603981e-01 -1.246863157217714679e-02 0.000000000000000000e+00
4.886534434283521522e-01 2.295011469333566589e-01 3.691010543204811256e-01
5.592648437678425788e-01 1.815159665178734949e-01 4.479210085832338040e-01
8.368592336827429534e-01 4.272371274603662394e-01 0.000000000000000000e+00
5.767630761062249034e-01 4.136690297729084254e-01 0.000000000000000000e+00
1.762721055087228539e-01 4.741384957198311323e-01 0.000000000000000000e+00
5.043244438062037815e-01 -3.622618553510705830e-01 0.000000000000000000e+00
5.372366986307876013e-01 4.877897846302576834e-01 0.000000000000000000e+00
2.029009240651746815e-01 4.050984564966320089e-01 5.460425668462086657e-01
9.357724580052544372e-01 7.079374662075548219e-01 0.000000000000000000e+00