POSCAR from GenerativeModels
1.0
2.000000000000000000e+01 0.000000000000000000e+00 0.000000000000000000e+00
0.000000000000000000e+00 2.000000000000000000e+01 0.000000000000000000e+00
0.000000000000000000e+00 0.000000000000000000e+00 2.000000000000000000e+01
Ag Al As At B Ba Be Br C Ca Cd Cl Co Cr Cs Cu Dy F Fe Fm Fr Ga Gd Ge H Hg I In Ir K Kr Li Lu Md Mg Mn Mo N Na Nb Ni No Np O Os P Pa Pd Pm Rb Rh Ru S Sb Sc Se Si Sm Sr Ta Tb Te Th Ti Tm U V W Xe Yb Zn
1 4 7 5 15 1 7 6 13 9 10 57 10 5 1 9 1 20 6 1 1 7 3 3 270 8 4 2 3 9 40 59 1 34 20 14 2 7 23 1 5 1 1 18 1 11 2 8 1 2 1 3 18 1 13 10 27 1 3 2 1 3 1 16 4 1 22 3 29 1 24
Direct
2.577630087528645086e-01 7.309315845261489253e-01 0.000000000000000000e+00
6.854386633555477060e-01 4.560378131698410442e-01 3.548770032676098474e-01
1.704940395155122301e-01 6.750313599893962291e-01 0.000000000000000000e+00
1.416000057901647402e-01 8.540393500676570770e-01 0.000000000000000000e+00
9.117884087874481569e-01 4.041775478324285409e-01 0.000000000000000000e+00
0.000000000000000000e+00 0.000000000000000000e+00 0.000000000000000000e+00
3.771163602865548192e-01 3.481712014317510651e-01 0.000000000000000000e+00
4.910952914923571999e-01 6.190306518119297330e-01 0.000000000000000000e+00
6.303116811245196294e-01 3.136432263329624881e-01 0.000000000000000000e+00
4.793306159076009543e-01 3.731832779946293588e-01 0.000000000000000000e+00
5.076987219004712726e-01 -6.217927356168218012e-03 0.000000000000000000e+00
6.406763800846333456e-01 3.864766692467850318e-01 1.929153100181389968e-01
1.097170971194932232e+00 -1.434796001073688210e-01 4.537315687070904158e-01
7.868977672749374319e-01 3.204136784480304811e-01 5.153833356492665274e-01
5.003360223051893652e-01 3.968327126084375545e-01 6.622214637183854169e-01
3.933379949095825445e-01 2.717507197956644527e-01 4.072127598470658416e-01
7.183044062545254071e-01 5.136158470210975269e-01 0.000000000000000000e+00
4.108867330447150135e-01 8.738676266652360969e-01 0.000000000000000000e+00
4.217300136946706690e-01 2.180480213878958073e-01 3.533326433858317017e-01
7.093717698641563985e-01 4.956328427289433680e-01 3.491234363883579661e-01
8.935038026635737651e-01 2.522195839729711730e-01 0.000000000000000000e+00
4.243229377392108148e-01 6.547257034195108627e-01 0.000000000000000000e+00
4.838849160011473582e-01 6.589676280050292823e-01 5.451083332907732393e-01
1.037655553802290465e+00 6.540866114323107272e-01 0.000000000000000000e+00
5.535880538979625065e-01 2.878333908762424898e-01 4.456108550335573515e-01
4.419242433911643175e-01 3.556559811200692423e-01 0.000000000000000000e+00
4.253603951133353434e-01 4.751631103010998114e-01 0.000000000000000000e+00
3.679728855203658888e-01 8.044891541716294725e-01 2.905953512570650377e-01
2.818383227276584080e-01 1.756108171261926421e-01 1.445062547367245154e-01
3.524607817564746615e-01 6.716099314211907423e-01 2.246847248089742788e-01
4.909723786997554074e-01 3.991478086664432823e-01 0.000000000000000000e+00
9.056761657607719229e-01 3.726415028273584173e-01 2.847933511888955938e-01
2.562645186311898193e-01 7.053926181270480100e-01 0.000000000000000000e+00
7.942821669493040915e-01 2.771780901942402231e-01 0.000000000000000000e+00
7.953442460182171825e-01 1.259787596518128217e-01 1.553272631333610931e-01
5.212875665779053147e-01 3.818763192767218317e-01 4.403782120584778248e-01
3.757509043760175471e-01 1.843487857443679712e-01 0.000000000000000000e+00
6.333663203226119753e-01 2.841637034691271158e-01 7.761707652929050738e-02
-1.650411058475431680e-02 5.700877248973083011e-01 0.000000000000000000e+00
-4.800537198357757163e-02 8.029209960787366818e-01 0.000000000000000000e+00
9.217869782560295100e-01 4.866705812687432964e-01 2.894348933827850523e-01
3.975503708121066460e-01 5.563523862024725153e-01 0.000000000000000000e+00
5.326971086076647266e-01 2.344349785598053293e-01 1.399875437262795286e-01
8.067596500851911268e-01 2.605627741128363484e-01 5.099683305153089874e-01
9.921035066954421167e-01 5.033054963797312098e-01 2.513118807496619311e-01
4.669302416243608089e-01 4.271697040743892559e-01 0.000000000000000000e+00
5.504529663541518625e-01 2.342141457280204619e-01 0.000000000000000000e+00
3.890926052206660213e-01 8.063044626630624379e-01 5.765078511522169213e-01
1.088007277277553753e+00 6.548172333501053322e-01 4.575464206220041241e-01
1.888716661969402910e-01 6.429747612236185184e-01 0.000000000000000000e+00
6.285097742520192599e-01 3.349141988648007828e-01 2.405818888113834264e-01
6.134081604767059881e-01 2.335096289867216734e-01 5.128050938913029100e-01
5.384256660657034121e-01 4.306746442049755874e-01 0.000000000000000000e+00
5.629798805218769742e-01 6.419368887069305529e-01 0.000000000000000000e+00
2.871142587194649431e-01 4.588504698596689302e-01 0.000000000000000000e+00
3.292845571096651991e-01 3.691803946355411981e-01 0.000000000000000000e+00
4.570754544721241652e-01 3.404281410822962428e-01 6.410940501501297684e-01
7.159650084401487646e-01 2.856903073552593542e-01 0.000000000000000000e+00
4.520044399334146590e-01 3.580267264503073088e-01 5.238923008561647832e-01
4.472183204663113809e-01 3.684341972790933228e-01 0.000000000000000000e+00
-1.271713327028411999e-01 6.977149297161013841e-01 0.000000000000000000e+00
5.214308466356295524e-01 2.072982693264826537e-01 4.543821456304641959e-01
4.053638091375897368e-01 3.179678915545931517e-01 0.000000000000000000e+00
1.469706887020348907e-01 4.717274105850839394e-01 0.000000000000000000e+00
3.606319015580156107e-01 6.570007544159084389e-01 0.000000000000000000e+00
4.679750523659547135e-01 3.479789756530172751e-01 0.000000000000000000e+00
5.597488311332735611e-01 7.010802382853356107e-01 0.000000000000000000e+00
7.963335479724960031e-01 6.663684142623170770e-01 3.946128054986399736e-01
4.618424411302781696e-01 2.935581789040890843e-01 0.000000000000000000e+00
6.482052254128927160e-01 4.775000411477950957e-01 2.703815220081418058e-01
4.347719865536852080e-01 5.656304284340011312e-01 0.000000000000000000e+00
2.542310700604737406e-01 5.637407946170507334e-01 0.000000000000000000e+00
6.222062091378577353e-01 2.212524346247953799e-01 5.083421530646946573e-01
7.684545121780556043e-01 7.749243267146428416e-01 3.855568314763766491e-01
7.813502642810771226e-01 2.350584755211952981e-01 4.445434949982041140e-01
6.869937976384821177e-01 3.493484589171116372e-01 1.187788074401961991e-01
7.646751905705576613e-01 -1.675375714222067103e-01 4.021975222977876019e-01
2.916391741958941353e-01 7.796906161882788400e-01 5.692372015939043406e-01
2.329551309874029474e-01 3.563926510181626428e-01 6.241712248993543932e-01
5.893945826156714585e-01 1.831139002427140117e-01 0.000000000000000000e+00
4.045298050933601175e-01 6.895217190729032719e-01 0.000000000000000000e+00
1.015860469623608431e-02 7.198455650888633262e-01 0.000000000000000000e+00
4.283672579344950382e-01 2.621955710470256218e-01 0.000000000000000000e+00
4.551698333038910471e-01 4.761502652475290143e-01 6.123102445985482145e-01
4.675119972625980669e-01 5.199920161175152211e-01 0.000000000000000000e+00
5.972710984052124195e-01 1.815254567899652338e-01 4.569344498163703250e-01
4.133713222951567179e-01 8.120280478288068871e-01 1.656723562236560587e-01
5.339826015745124943e-01 2.021403292273451502e-01 0.000000000000000000e+00
4.237184957163744325e-01 6.438744695887148595e-01 0.000000000000000000e+00
5.823395105719145759e-01 5.380050126408260081e-01 0.000000000000000000e+00
6.388993699205147703e-01 4.993711719146116668e-01 6.078721305872135661e-01
7.684539804845036404e-01 1.825498584587599282e-01 0.000000000000000000e+00
4.654390940614678840e-01 1.581146989207385944e-01 0.000000000000000000e+00
5.413832227799066921e-01 5.573000245805209696e-01 0.000000000000000000e+00
4.875562221062799129e-01 5.078434457385079259e-01 5.069934337067051322e-01
3.842057430019369946e-01 6.357441446178793143e-01 0.000000000000000000e+00
4.925612727995387630e-01 8.109728969495654249e-01 2.245234114776365475e-01
6.877388598249339902e-01 2.087611860020974763e-01 6.239260199002720775e-01
6.553287886963876652e-02 6.686563080896665845e-01 0.000000000000000000e+00
6.680029113005065966e-01 4.213270288773341976e-01 2.403745377565416064e-01
1.244880526753693095e+00 3.304387757480554688e-01 0.000000000000000000e+00
6.436966936203853962e-01 6.670656290962755364e-01 0.000000000000000000e+00
7.054552002783838205e-01 3.059674931122620123e-01 8.529778621884409606e-02
2.038544060758228360e-01 8.190993200627580961e-01 0.000000000000000000e+00
2.633092415287561217e-01 6.571519051530189115e-01 0.000000000000000000e+00
4.564625881275024000e-01 7.447299186824976047e-01 0.000000000000000000e+00
5.030777381521638336e-01 4.517405612142569860e-01 5.232507204087336605e-01
3.810228374013362451e-01 4.536719421259269858e-01 4.810028818744102042e-01
4.094020301493983549e-01 1.882656047929522902e-01 0.000000000000000000e+00
8.924139673762253588e-01 2.600465745468938383e-01 0.000000000000000000e+00
5.555046293866375828e-01 4.760016071912578361e-01 4.831145854054783584e-01
3.956963244699134297e-01 4.809415793148802409e-01 3.898847139084720137e-01
2.720855590237012400e-01 5.160626683606897025e-01 0.000000000000000000e+00
9.958438319337713507e-01 7.729868146945748641e-01 1.372088304505734158e-01
8.611455174171885885e-01 2.102181479079674453e-01 1.388409427227088599e-01
6.444835244556488263e-01 4.744785920491798592e-01 6.526305979478662644e-01
2.728878083521757425e-01 5.160374892434663741e-01 0.000000000000000000e+00
6.344661866467758982e-01 1.260995059454149692e-01 2.345516706348267366e-01
1.115601886342277194e+00 2.957185681813960798e-01 2.725109169453835412e-01
1.722894336875546717e-01 5.202586616646026618e-01 2.069622250831142374e-01
8.032887156929768846e-02 8.878278179669968351e-01 0.000000000000000000e+00
5.688015176646871174e-01 6.008293359864614880e-01 2.349057643738798884e-01
7.986756805157586570e-01 5.532875341280037995e-01 0.000000000000000000e+00
1.662317963572856883e-01 4.390525901882680326e-01 0.000000000000000000e+00
-1.112272706501091779e-01 9.926134857545160228e-01 0.000000000000000000e+00
5.285986445107452303e-01 5.785222769272694299e-01 9.490608182539617133e-02
3.011943320100030075e-01 4.789614295650654885e-01 5.438079407350751016e-01
4.162597763375479598e-01 4.729933414004796610e-01 0.000000000000000000e+00
9.804777148819989741e-01 2.448702758713393601e-01 2.387041916665568753e-01
8.265858636710966545e-01 3.885696708078203443e-01 5.969858446895294213e-01
7.444841934236969827e-01 1.848425189933327051e-01 0.000000000000000000e+00
6.533253495277503431e-01 6.855673562960572509e-01 5.443067461964459230e-01
3.566948382368173576e-01 8.079478294924572479e-01 0.000000000000000000e+00
1.389178419743313242e-01 3.128435568782983456e-01 3.069801831402956260e-01
4.660937288215145635e-01 3.695851754386163535e-01 2.253662078370988198e-01
4.747052292518481043e-01 3.088532402397484722e-01 0.000000000000000000e+00
-1.164783708070671331e-02 7.763859934294551346e-01 0.000000000000000000e+00
1.010743662031633461e+00 4.284422064870800906e-01 0.000000000000000000e+00
6.391264259203164322e-01 3.813395078508181602e-01 0.000000000000000000e+00
4.800507015698460833e-01 7.683987502903687483e-01 3.195735045705707655e-01
7.077243447919535635e-01 3.882546327252722751e-01 1.144385160494489906e-01
7.168287220994803421e-01 5.190989644522693292e-01 4.292912451058648049e-01
4.957779162254009053e-01 3.488182025357073890e-01 4.081944969872238760e-01
3.880774557882070708e-01 7.228613603579741032e-01 5.871256100489444796e-01
5.524367254864411825e-01 2.934003982068402738e-01 4.018574686623248571e-01
5.414651235890589609e-01 4.944344336305495080e-01 0.000000000000000000e+00
4.924124526760060849e-01 -3.097934536222091140e-03 2.730162591229177149e-01
4.865276269973219936e-01 5.482871252907343118e-01 0.000000000000000000e+00
4.474634675572575215e-02 6.694750720559906609e-01 0.000000000000000000e+00
2.923245657064024172e-01 6.426597171522615559e-01 0.000000000000000000e+00
7.103299660024686712e-01 7.646737861720587226e-02 6.588423119531092720e-01
5.232588459878851905e-01 3.270502907538712645e-01 0.000000000000000000e+00
8.828006695403685100e-01 2.914872456765509323e-01 0.000000000000000000e+00
8.903360441773208178e-01 6.081629313425344074e-01 0.000000000000000000e+00
4.383645822547110882e-01 5.010970074386399409e-01 0.000000000000000000e+00
5.176666504834274152e-01 2.503041600853077586e-01 3.243217470709324202e-01
2.618058106784809658e-01 7.049669428898481804e-01 0.000000000000000000e+00
6.719164006695638180e-01 2.552655611537666402e-01 1.960273096903464296e-01
8.258960781946479424e-01 3.209060470822642230e-01 2.363104846610939447e-01
5.843753358974101975e-01 3.606402186197110726e-01 1.352830976095750204e-01
2.142360772148661496e-01 5.863181831348155404e-01 0.000000000000000000e+00
7.302884985310802435e-01 4.056900769873050816e-01 2.633692855594582660e-01
7.812932949344220113e-02 5.159542526716057731e-01 3.622796404155802508e-01
6.479659625648902521e-01 3.115109480202440384e-01 0.000000000000000000e+00
3.670219513889796392e-01 2.734925903709749528e-01 2.374337392800945912e-01
7.637054759444668051e-01 4.504662943857656865e-01 0.000000000000000000e+00
8.437052776186938496e-01 2.781119412782873113e-01 2.072073999964936242e-01
4.087218225364411817e-01 3.387890990862969520e-01 0.000000000000000000e+00
3.719754171826686884e-01 3.326886908504160800e-01 3.016656430499045083e-01
5.511081935632854423e-01 4.174144392242294943e-01 0.000000000000000000e+00
3.068963244504068211e-01 5.758051734297253699e-01 0.000000000000000000e+00
3.697735874668093281e-01 4.989527659911103807e-01 0.000000000000000000e+00
6.330442935368716384e-01 1.333654787271499886e-01 4.404529053109806913e-01
-2.583674137207392363e-03 8.339841158434495583e-01 0.000000000000000000e+00
6.215556692252438564e-01 1.659348041835806420e-01 5.855677854631946566e-01
4.030455101337317991e-01 7.100667736719691314e-01 0.000000000000000000e+00
1.364607951637146765e-01 5.949827340987812185e-01 0.000000000000000000e+00
5.216886839974486101e-01 4.022085604854260810e-01 2.557137901660508916e-01
7.771207919630188643e-01 6.378402114650580934e-01 0.000000000000000000e+00
5.956289228469433539e-01 3.493029546071992897e-01 4.044059596635760645e-01
8.181676907161137269e-01 1.577145400053591162e-01 4.540098099356142392e-01
6.319329445090230424e-01 5.341054480009826966e-01 0.000000000000000000e+00
3.921413164061774426e-01 2.554830530579432768e-01 0.000000000000000000e+00
3.056854914353690500e-01 8.350537485336136934e-01 0.000000000000000000e+00
5.616873366414790736e-01 -1.105492211140017833e-01 0.000000000000000000e+00
2.732463530315925038e-01 6.289019837466733875e-01 2.192649568358502332e-01
2.121472555250658587e-02 6.386511005430069998e-01 0.000000000000000000e+00
1.096695052596404096e+00 5.958065075363130347e-01 0.000000000000000000e+00
1.279355254795134789e-01 7.532877953249822456e-01 0.000000000000000000e+00
-7.182644698760376478e-02 8.557633321292694717e-01 0.000000000000000000e+00
4.326976341559432004e-01 4.527077834895474329e-01 0.000000000000000000e+00
2.789584836121182798e-01 2.668378772731587745e-01 0.000000000000000000e+00
7.128865241658831620e-01 4.990635611566789365e-01 0.000000000000000000e+00
4.625373265448862181e-01 -1.469509336359697826e-03 0.000000000000000000e+00
5.889736450316686023e-01 4.677111387160295397e-01 0.000000000000000000e+00
4.646371080122613240e-01 5.118996791102236044e-01 0.000000000000000000e+00
2.910583774203491236e-01 4.919163388599312459e-01 0.000000000000000000e+00
-2.836523825395971254e-01 1.045064316967438733e+00 0.000000000000000000e+00
5.422071199766506089e-01 5.793981303496404944e-01 0.000000000000000000e+00
2.671134241414019339e-02 3.882355647337558668e-01 0.000000000000000000e+00
4.265849267818921930e-01 3.659107889504491506e-01 5.282364718120255986e-01
4.622295500340932728e-01 5.977217508602056251e-01 0.000000000000000000e+00
6.694800425196467675e-01 3.214101840901444351e-01 0.000000000000000000e+00
4.914294072001872404e-01 3.026061427241546475e-01 0.000000000000000000e+00
5.390356700342816554e-01 6.226056415060532423e-01 0.000000000000000000e+00
-1.404176234327940698e-01 9.941056858116660289e-01 0.000000000000000000e+00
5.013520380791663955e-01 7.681935028202925286e-01 0.000000000000000000e+00
2.594403350595951840e-01 6.389786407257943557e-01 2.718951210248705674e-01
4.252652061224722058e-01 7.680398427765462444e-01 0.000000000000000000e+00
8.717236890194515198e-01 5.684274922836518584e-01 0.000000000000000000e+00
5.835516368935862452e-01 2.778365644153288905e-01 3.177374738008795774e-01
7.327695649320525861e-01 7.266896426338371739e-01 4.242243595845334170e-01
7.560056520988006623e-01 3.191349446977551629e-01 2.827492425393395292e-01
5.808164162959853494e-01 5.318913389105928147e-01 0.000000000000000000e+00
2.533643416298121398e-01 5.814076043331447563e-01 0.000000000000000000e+00
5.770763314927128684e-01 5.569442176361272256e-02 0.000000000000000000e+00
4.996831094032190279e-01 2.842983473071123424e-01 0.000000000000000000e+00
4.321836280649510309e-01 2.051728734037763235e-01 5.003293955943375337e-01
1.235372570074303455e-01 7.646896306559409773e-01 0.000000000000000000e+00
4.847178294272225241e-01 2.351675078528524532e-01 5.059551362867629187e-01
3.155212107946330224e-01 4.658213192139979419e-01 4.084353022891673568e-01
4.218282685789813691e-01 3.385438349167373406e-01 0.000000000000000000e+00
8.039426140412783139e-01 6.139605608996218100e-01 2.264149993049690002e-01
2.042985948029226728e-01 5.703045775844358678e-01 0.000000000000000000e+00
4.791225827871792298e-02 9.193444472835268222e-01 0.000000000000000000e+00
5.096799700190937088e-01 3.671627472391489899e-01 0.000000000000000000e+00
8.865577403975850590e-01 6.974697799763559525e-01 0.000000000000000000e+00
8.355638768321859144e-01 2.682998702232397559e-01 0.000000000000000000e+00
2.579273514723827709e-01 3.864414342590246632e-01 0.000000000000000000e+00
8.533759135476263191e-01 1.885204193917340287e-01 9.821827934466409449e-02
4.384725879831223860e-01 4.027869461425429565e-01 0.000000000000000000e+00
9.540491122911609612e-02 6.564581666313172859e-01 0.000000000000000000e+00
7.777721373453251319e-01 2.123426633405567365e-02 4.087526215252392792e-01
3.357138130407442134e-01 4.662304110827883985e-01 0.000000000000000000e+00
6.148769595212821848e-03 5.313629634857696127e-01 0.000000000000000000e+00
9.127254792610746126e-01 5.260387655463674150e-01 0.000000000000000000e+00
2.924744712490130460e-01 5.992015767743149590e-01 0.000000000000000000e+00
6.497241620014599928e-01 4.315095181970012295e-01 4.680193678512100108e-01
3.272585076167522367e-01 5.729775863664965385e-01 0.000000000000000000e+00
8.780020361641645010e-01 5.267368056479820870e-01 0.000000000000000000e+00
2.825331906097594548e-01 4.350623648908188423e-01 0.000000000000000000e+00
7.533135164158237806e-01 3.859434651073521128e-01 2.547680372083880318e-01
5.403641542108722495e-01 6.225209136731302273e-01 5.293230111658474568e-01
5.310591517484307689e-01 4.618897699938595558e-01 0.000000000000000000e+00
5.376556558955211118e-01 5.548267844325183162e-01 0.000000000000000000e+00
4.165278103915379670e-01 6.912129129620394608e-01 0.000000000000000000e+00
-5.145902739229724077e-02 6.698874145852838913e-01 0.000000000000000000e+00
3.390871707291396309e-01 4.389692487030063539e-01 0.000000000000000000e+00
2.191225645701504465e-01 5.932418726363497541e-01 0.000000000000000000e+00
5.464700681518486203e-01 2.895386496459380066e-01 5.993811195558996774e-01
5.347061555632185437e-01 6.909858244012424544e-01 3.568763704827040417e-01
3.526815367430979897e-01 3.750217681086928101e-01 4.036475072470322445e-01
2.176296963541218821e-01 5.777807305525682890e-01 5.956057573543706019e-01
2.429236195732926706e-01 4.849401305365886872e-01 0.000000000000000000e+00
5.744816169515584159e-01 1.894781658112547618e-01 0.000000000000000000e+00
4.819515585104208188e-01 1.967214323092866257e-01 3.158032389973333132e-01
5.072716956860009452e-01 4.423021843735768233e-01 1.872541609426094933e-01
6.480642695868976677e-01 6.229726957683769939e-01 0.000000000000000000e+00
4.191599747300720491e-01 2.304689508583916968e-01 1.044096656963598990e-01
6.140848915175165512e-01 6.452957729806082510e-01 0.000000000000000000e+00
6.019033097737719329e-01 6.329054217203889943e-01 0.000000000000000000e+00
6.536999252088380175e-01 5.792914914301334761e-01 0.000000000000000000e+00
3.547270682980414591e-01 7.338163435272977431e-01 1.669831693153105423e-01
4.715000015014776391e-01 5.343542387415023409e-01 0.000000000000000000e+00
6.513886697528114000e-01 6.495352204627992121e-01 0.000000000000000000e+00
6.438060090588368922e-01 1.929818395981667267e-01 0.000000000000000000e+00
2.172640920548604138e-01 2.928051229369506014e-01 1.506128554957227861e-01
3.724105925427605435e-01 7.498088619268514776e-01 4.976694580642356813e-01
5.509053962306665886e-01 5.278674443062071342e-01 2.457053642341477939e-01
5.201392335792074384e-01 4.190374010967278240e-01 4.796252366081463769e-01
5.418196889773126967e-01 3.818795867459841009e-01 0.000000000000000000e+00
4.564720330455350750e-01 3.433760068020104139e-01 4.914635602676131754e-01
4.991398021367327020e-01 3.180967878821978623e-01 0.000000000000000000e+00
4.128821641964115496e-01 1.942786182912260573e-01 0.000000000000000000e+00
7.616700054633755990e-01 3.963178253581873811e-01 5.093831001145402437e-01
9.861328456759432814e-01 4.564798004336096948e-01 3.383885202502212586e-01
6.742292387772526041e-01 4.875283708789535098e-01 0.000000000000000000e+00
7.774517408094583359e-02 6.694577615056789277e-01 0.000000000000000000e+00
6.747854408821546413e-01 4.967814022359484660e-01 0.000000000000000000e+00
2.888530098831940673e-01 5.951003256879178194e-01 0.000000000000000000e+00
4.596865450068892134e-01 4.165975028647981304e-01 0.000000000000000000e+00
5.225520475644229723e-01 5.959882499565866132e-01 0.000000000000000000e+00
7.980556863125010114e-02 5.779884687525201903e-01 0.000000000000000000e+00
4.997733167973664736e-01 1.988993277708613894e-01 0.000000000000000000e+00
2.571806698578067429e-01 6.685137619933514408e-01 0.000000000000000000e+00
8.186485768948653652e-01 4.635177750848128442e-01 0.000000000000000000e+00
9.802368458638588411e-01 5.711941846393097100e-01 3.682440740581138794e-01
4.468294956612870461e-01 4.647108998126068258e-01 3.540416221477884484e-01
4.322842070060675113e-01 3.937970246659510121e-01 4.714574419229913271e-01
2.833945660209151729e-01 3.349309978258896425e-01 1.117889233174513830e-01
5.834410760343498037e-01 8.295293491754395232e-01 0.000000000000000000e+00
8.323934750429640150e-02 7.253284320083613901e-01 0.000000000000000000e+00
6.598449317476944298e-01 2.134078205884814006e-01 0.000000000000000000e+00
6.072542196249022250e-01 4.019198084929459514e-01 4.477163765928486860e-01
3.273213436936146525e-01 6.156844136727673833e-01 0.000000000000000000e+00
5.481845123774294892e-01 3.428146770005465749e-01 6.571196142880384450e-01
3.475977326366799236e-01 5.357035173358311031e-01 4.300938297459873105e-01
4.787379251067491737e-01 3.209251076254233670e-01 2.299809245371886579e-01
8.384714625756055639e-01 4.477446009107424185e-01 0.000000000000000000e+00
3.719882422508928865e-01 6.208480727345536687e-01 0.000000000000000000e+00
7.912028695706965209e-01 2.736293510427286746e-01 0.000000000000000000e+00
2.984523808959834712e-01 3.742091992535967471e-01 0.000000000000000000e+00
7.141834130859953111e-01 4.758839038934288279e-01 0.000000000000000000e+00
6.093896185528113740e-02 2.365935714991247441e-01 0.000000000000000000e+00
9.614989178048505281e-01 4.357460613638437508e-01 0.000000000000000000e+00
3.856697837403313400e-01 7.786882516476172356e-01 0.000000000000000000e+00
4.667387877990367695e-01 5.686927940962857031e-01 0.000000000000000000e+00
5.937205875907304309e-01 4.179676551967779208e-01 2.309789003521153239e-01
4.030445719875351829e-01 5.650629055189385630e-01 0.000000000000000000e+00
5.938687616544097159e-01 7.527220224160793283e-01 0.000000000000000000e+00
4.469462420110006384e-01 4.837273571662887850e-01 0.000000000000000000e+00
4.273773208868969498e-01 7.487130801244612499e-02 3.741945606397056867e-02
6.821861611443992279e-01 3.955906707662666388e-01 0.000000000000000000e+00
4.592654033294811811e-01 4.428256958674460231e-01 0.000000000000000000e+00
3.603756033932343783e-01 7.668009844074082926e-01 0.000000000000000000e+00
-1.672096729883754129e-02 8.787896475926780804e-01 0.000000000000000000e+00
7.115583328026725551e-01 4.805739618493642951e-01 0.000000000000000000e+00
1.913169509442893546e-01 8.046570046158640910e-01 0.000000000000000000e+00
5.361908715345347076e-01 5.455885079939739590e-01 0.000000000000000000e+00
4.403549009892289146e-01 4.801574649591372479e-01 0.000000000000000000e+00
5.188321037511508527e-01 5.510653304276628139e-01 0.000000000000000000e+00
4.795064630813823392e-01 5.704919944135837806e-01 0.000000000000000000e+00
4.747291509003375154e-01 4.902189469161930546e-01 0.000000000000000000e+00
4.908464495980211506e-01 5.069439443011944935e-01 3.212434904067626995e-01
3.050134407018154636e-01 5.111462358474470058e-01 0.000000000000000000e+00
4.035961721000278501e-01 5.250249940164098961e-01 0.000000000000000000e+00
6.206014501467372879e-01 4.360463732153625482e-01 0.000000000000000000e+00
5.124115861294469276e-01 3.333599355320920887e-01 0.000000000000000000e+00
6.773096592716618680e-01 1.471486574230869149e-01 0.000000000000000000e+00
1.962747681389958032e-01 3.166571390199414138e-01 0.000000000000000000e+00
7.357812190067455349e-01 1.847875490464423454e-01 5.899315127999593678e-01
1.030356478351291960e+00 4.404523034514919999e-01 4.707374362429602721e-01
7.260639270273366863e-01 7.390771022053010952e-02 2.079749000179444973e-01
3.317051420464653955e-01 5.699130893589788860e-01 0.000000000000000000e+00
6.833964213747290017e-02 4.543499461652715787e-01 0.000000000000000000e+00
2.347454697310736860e-01 7.534875856473538525e-01 0.000000000000000000e+00
3.070550286307573984e-01 5.442348838221685581e-01 4.184324094744643618e-01
3.847312456180387308e-01 5.578030575763540666e-01 0.000000000000000000e+00
8.499866780264373478e-01 5.210118927794803456e-01 0.000000000000000000e+00
2.140266185613990402e-01 5.965038621172789046e-01 0.000000000000000000e+00
9.054629424999189879e-01 4.435040177079168089e-01 0.000000000000000000e+00
5.336866869682125314e-01 4.925152777685002370e-01 2.211663146014284376e-01
2.946795934783457138e-01 3.198410110108642623e-01 0.000000000000000000e+00
5.799321976220236374e-01 5.234800995716746286e-01 1.951507595408568108e-01
6.574566836445339124e-02 7.056722508858354059e-01 0.000000000000000000e+00
5.261181979567335354e-01 2.304291025379558988e-01 0.000000000000000000e+00
8.162409791273330661e-01 5.538463635711016186e-01 0.000000000000000000e+00
7.685896241995575640e-01 6.504957210148250013e-01 0.000000000000000000e+00
6.667020481591314773e-01 5.678738075167563126e-01 2.296934318718483192e-01
3.288573370072849222e-01 4.405616885847618569e-01 6.201465268382647666e-01
1.151743613028132218e-01 7.595911624767883730e-01 0.000000000000000000e+00
4.609739808855312093e-01 1.244155812710798781e-01 1.953627792061087831e-01
3.982830633677449939e-01 8.700936072937353050e-01 0.000000000000000000e+00
7.559941637412759263e-01 3.355224771919457227e-01 0.000000000000000000e+00
2.077965101037401174e-01 5.520240043138766595e-01 0.000000000000000000e+00
4.538592478099443550e-01 6.110078968164889268e-01 2.062064654284063714e-01
4.009874352422444499e-01 4.257461066565482177e-01 0.000000000000000000e+00
5.515639700639567433e-01 5.534633510180650973e-01 0.000000000000000000e+00
6.158520602779109510e-01 5.988644900864027454e-01 0.000000000000000000e+00
8.135889683270672856e-01 4.047992276796090749e-01 0.000000000000000000e+00
7.199345053206137601e-01 1.529907944220322280e-01 2.824545184008163679e-01
6.884247394528665298e-01 5.226899413982047937e-01 0.000000000000000000e+00
9.092032514226945361e-01 2.691991409038019256e-01 2.088457068837549224e-01
2.878194450261990500e-01 5.520789667093367603e-01 0.000000000000000000e+00
2.461633300027545879e-01 5.666843521942949158e-01 0.000000000000000000e+00
1.121232378865117951e-01 8.024509004368329812e-01 0.000000000000000000e+00
5.442014941345473256e-01 6.410310074280207715e-01 6.648672874735972460e-02
3.656984159327899553e-01 5.390724838223904802e-01 0.000000000000000000e+00
5.749958256834405423e-01 2.326514251348106299e-01 4.385576547680485326e-01
4.557713774093754555e-01 5.921981090552356219e-01 0.000000000000000000e+00
7.108467524218480271e-01 7.665783513717938646e-02 0.000000000000000000e+00
7.010242209075453479e-01 4.811453999997954423e-01 1.306776387785931748e-01
5.031048381944983605e-01 3.809328803372276084e-01 0.000000000000000000e+00
6.675879069836154756e-01 2.010279641709156184e-01 2.031529183978694197e-01
8.063942552129440555e-01 3.881455953759678223e-01 4.316848909008783597e-01
-5.384964281874560221e-02 5.978960767798485731e-01 0.000000000000000000e+00
2.393463981169612342e-01 5.704521005177581872e-01 0.000000000000000000e+00
3.151089875393533468e-01 3.063931579822065654e-01 8.020238676283981683e-01
8.033460131918417346e-01 2.899449633179136399e-01 0.000000000000000000e+00
5.956586830602436100e-01 2.908180247270819585e-01 0.000000000000000000e+00
8.178929696775715241e-01 2.293263387185051627e-01 2.926176692393718248e-01
3.729793241096164280e-01 4.441060193916286369e-01 0.000000000000000000e+00
7.891129523921792677e-01 3.619103163191910166e-01 0.000000000000000000e+00
6.569463916737980913e-01 4.443501965103592299e-01 0.000000000000000000e+00
3.193931567243153413e-01 5.454486304760240989e-01 4.143019658173314745e-01
9.429695141986895734e-01 3.291275901672159332e-01 0.000000000000000000e+00
9.024353478940287943e-01 3.437448312269113515e-01 9.621740301329395617e-02
3.194830780375917945e-01 4.281424260045363361e-01 1.701173481897948481e-01
2.642247024017136958e-01 5.330974301374966640e-01 0.000000000000000000e+00
6.472497045215570566e-01 -4.833439038450659808e-02 5.663138627970462080e-01
5.471958030713758303e-01 5.486615527531780723e-01 0.000000000000000000e+00