POSCAR from GenerativeModels
1.0
2.000000000000000000e+01 0.000000000000000000e+00 0.000000000000000000e+00
0.000000000000000000e+00 2.000000000000000000e+01 0.000000000000000000e+00
0.000000000000000000e+00 0.000000000000000000e+00 2.000000000000000000e+01
Al As At B Be Br C Ca Cd Cl Co Cr Cu F Fe Ga Ge H Hg I In Ir K Kr Li Mg Mn Mo N Na Ni No O P Pd Pm Ra Rb Ru S Sc Se Si Sn Sr Tc Ti Tm V Xe Zn
8 5 4 8 10 4 13 16 4 39 20 5 6 21 11 5 9 170 1 3 1 1 6 27 41 20 15 2 10 24 8 2 23 10 12 1 1 3 3 15 17 12 14 1 1 3 20 1 18 18 17
Direct
6.088581305843162594e-01 2.475402113911987501e-01 0.000000000000000000e+00
6.688671583882070948e-01 5.346261932005211825e-01 0.000000000000000000e+00
3.434989857409156411e-01 4.500119651229388396e-01 2.632371159388637860e-01
8.124216713921706967e-01 6.227478873747296362e-01 0.000000000000000000e+00
3.644296804844222581e-01 4.974209595708984910e-01 0.000000000000000000e+00
5.854234386838560456e-01 7.137886240785058511e-01 1.023363438618313248e-01
4.011443817752520236e-01 6.192171071839904783e-01 0.000000000000000000e+00
7.717528441683576546e-01 2.474361989677362761e-01 6.877900286114690953e-01
7.404556080983456523e-01 6.303820065190545163e-01 6.036466147061947396e-01
5.119237539025859318e-01 6.748643336685438143e-01 0.000000000000000000e+00
6.190603954450595303e-01 -9.387561899330565396e-02 0.000000000000000000e+00
4.721184416358883418e-01 2.902610757898420601e-01 1.396051144436258884e-01
3.146481920074062355e-01 5.192477558940497007e-01 0.000000000000000000e+00
2.249366933777763311e-02 9.406301057321784231e-01 0.000000000000000000e+00
6.451461750072731149e-01 6.524855223811876215e-02 0.000000000000000000e+00
6.207392194662925133e-01 3.062927312558887394e-01 0.000000000000000000e+00
4.120592775279672271e-01 7.730983612075923439e-01 3.399154437630784731e-01
3.725482195065494828e-01 2.671275165657117645e-01 0.000000000000000000e+00
5.220565624668153104e-01 3.121939640042972197e-01 0.000000000000000000e+00
8.522968108267762188e-01 4.057541808477265199e-01 5.410478601217750816e-01
4.876032422447542647e-01 3.874315926657478926e-01 0.000000000000000000e+00
4.462757662068935760e-01 5.186045321898055116e-01 0.000000000000000000e+00
3.609942693164536198e-01 6.099716332779618888e-01 0.000000000000000000e+00
1.888722203533254040e-01 7.082525985361848297e-01 0.000000000000000000e+00
5.924559433191490809e-01 4.081773681749055749e-01 1.049681842862538739e-01
9.297659583327861910e-01 3.869648333173063559e-01 4.772428882076591439e-01
3.642838952315559098e-01 5.183404184325123287e-01 0.000000000000000000e+00
4.259362893081835022e-01 3.508681581756303292e-01 0.000000000000000000e+00
7.144913468813431923e-01 2.584091363269158670e-01 0.000000000000000000e+00
4.362230836305924786e-01 4.001138777471429098e-01 0.000000000000000000e+00
8.553876536129136898e-01 3.922977988012471551e-01 0.000000000000000000e+00
9.053597202247281039e-01 4.420346091622455731e-01 0.000000000000000000e+00
8.801517889849794773e-01 5.346774017064279683e-01 0.000000000000000000e+00
6.630213299382266001e-01 -4.625325746959085826e-02 0.000000000000000000e+00
8.402617981754844090e-01 3.612939559204957352e-01 4.172400882344127204e-01
5.648929729769972541e-01 4.076674147626471179e-01 0.000000000000000000e+00
8.421225675236230224e-01 6.830192245362498582e-01 0.000000000000000000e+00
8.316034662770053210e-01 4.246836339188938547e-01 0.000000000000000000e+00
6.940669897322462312e-01 4.405368703068059943e-01 0.000000000000000000e+00
5.939649172187129178e-01 2.159972936301206570e-01 0.000000000000000000e+00
7.679463205981562623e-01 2.541629194265095926e-01 5.215127886978420113e-01
5.712085755554149324e-01 5.185100991371814905e-01 0.000000000000000000e+00
6.593633645173309077e-01 6.365639520601873436e-02 0.000000000000000000e+00
6.786589868297854267e-01 8.926949022485830554e-02 0.000000000000000000e+00
6.012201451726775225e-01 5.531272661276210867e-01 0.000000000000000000e+00
7.857228701742693389e-01 -5.514769569463973120e-02 4.064174847323205331e-01
8.066786720205189054e-01 3.957545571285148167e-01 4.103975313282974824e-01
7.927208471190924088e-01 6.026305141979135804e-01 0.000000000000000000e+00
5.967045413198398540e-01 2.155751473482496738e-01 5.357516258684001942e-01
5.223880800756628418e-01 4.590768865318396452e-01 0.000000000000000000e+00
0.000000000000000000e+00 0.000000000000000000e+00 0.000000000000000000e+00
4.893011237098098265e-01 6.770837051876481549e-01 0.000000000000000000e+00
5.999321375764468112e-01 4.714843537437873877e-01 0.000000000000000000e+00
5.535101479722602802e-01 5.878175435112559244e-01 2.686202656094183183e-02
7.296606422450278018e-01 4.022525281841071720e-01 0.000000000000000000e+00
5.351549871850204143e-01 1.693189616251404850e-01 0.000000000000000000e+00
7.304705703217924118e-01 -1.142252875774991683e-01 4.173806569680715839e-01
1.011890296614931239e+00 -1.740844021016836329e-01 4.409471989239019951e-01
9.061958511106983361e-01 9.961674695689071157e-02 2.157011848325174341e-01
1.070359497161135875e+00 2.645348345477773755e-01 2.917397305154818543e-01
3.825208710607553853e-01 3.681774585595773974e-01 0.000000000000000000e+00
5.223126487548598318e-01 3.755205477434759853e-01 2.907907219839255264e-01
4.856221725608567130e-01 2.931715739010930522e-01 3.332262949455110368e-01
5.368324040453383850e-01 2.841708271843407241e-01 4.272207568558369362e-01
5.640178222586298418e-01 5.907196649735669824e-01 3.451368064051425488e-01
9.200456690536493731e-01 2.139045769837533140e-01 0.000000000000000000e+00
5.413951206413976092e-01 5.617501954296634237e-01 0.000000000000000000e+00
7.293028863738543199e-01 1.125625460561037183e-01 0.000000000000000000e+00
6.920368329387409645e-01 3.000494401987241488e-01 0.000000000000000000e+00
5.141180114554037006e-01 -3.218928257665631953e-01 0.000000000000000000e+00
4.468127451495007563e-01 3.930590936795881341e-01 0.000000000000000000e+00
5.233988301219197892e-01 2.235488084910282058e-01 0.000000000000000000e+00
8.157714607973212129e-01 3.235929727588070515e-01 0.000000000000000000e+00
8.555811048205161917e-01 1.467819859150660822e-01 4.086299244108714257e-01
5.976006462289444876e-01 4.135457144112737460e-01 0.000000000000000000e+00
3.733014426862601987e-01 5.928152093532904621e-01 0.000000000000000000e+00
8.505675532322481969e-01 3.106956894324859331e-01 2.445509827143944603e-01
6.026216402745274703e-01 4.698834891149157311e-01 0.000000000000000000e+00
4.471740393789143120e-01 1.965323438240916820e-01 5.412881207575888087e-01
1.128988141022958525e+00 2.272200662550221129e-01 4.656688687173927699e-01
1.018542701896562708e+00 4.479839832289937984e-01 2.784228320300444759e-01
6.206308344491371365e-01 7.835625897431528486e-01 0.000000000000000000e+00
5.362552377044779162e-01 2.210735417164115812e-01 0.000000000000000000e+00
7.041566997012406182e-01 3.079064849987920294e-01 4.073092702875158455e-01
6.475509407256354599e-01 6.328379925426002028e-01 0.000000000000000000e+00
7.715274955185691397e-01 -5.144359945528027556e-01 0.000000000000000000e+00
5.281842770576727908e-02 7.763984162801150779e-01 0.000000000000000000e+00
3.517192012002154922e-01 7.807107883143247218e-01 0.000000000000000000e+00
5.761026954634406172e-01 1.888718300707612485e-01 0.000000000000000000e+00
5.949596676353189340e-01 2.628074253209733424e-01 3.904223865879372646e-01
6.601968856273039421e-01 1.394382882339116891e-01 2.013387671042428106e-01
4.561695345653153932e-01 3.976574490721984656e-01 0.000000000000000000e+00
4.580045683217868202e-01 5.374008070532301229e-01 0.000000000000000000e+00
2.216230997786949874e-01 1.682226736470215922e-01 0.000000000000000000e+00
2.746037608827790466e-01 6.319216073163133052e-01 0.000000000000000000e+00
7.722625965304746876e-01 5.172449256876616719e-01 3.286728433239831659e-01
6.672158715817407826e-01 3.144433754321794838e-01 2.250972913516742224e-01
3.708167111400160199e-01 4.584868845228682321e-01 1.205897931329950046e-01
3.603728666678609471e-01 4.474421477895812460e-01 0.000000000000000000e+00
1.328267611063451703e-01 6.421309583697152323e-01 0.000000000000000000e+00
4.440225940151312223e-01 4.139767122798749810e-01 0.000000000000000000e+00
6.787505958923132354e-01 2.365262386580662124e-01 0.000000000000000000e+00
4.803903874098478521e-01 5.144620585447942096e-01 0.000000000000000000e+00
7.099934539996617389e-01 2.570551663030268275e-01 2.026438997598700720e-01
6.641729977042069022e-01 1.242219776785770113e-01 0.000000000000000000e+00
7.723909679271022677e-01 6.562622510318459890e-01 0.000000000000000000e+00
8.159310173347806838e-01 5.097690488455786095e-01 0.000000000000000000e+00
6.027820056340914556e-01 3.839871222332564837e-01 0.000000000000000000e+00
4.275777674566572095e-01 3.757912146396975572e-01 7.845189332734581189e-02
6.468486230341331522e-01 3.354625322783595376e-01 2.058943217581361562e-01
7.302615825981179087e-01 4.824120770364788147e-01 1.365948400993473033e-01
6.590403930496073759e-01 -1.663984682453678587e-02 2.683729162129964152e-01
7.222748684788391493e-01 3.470004733231952798e-01 0.000000000000000000e+00
7.701884016452026360e-01 1.109727915363201145e-01 0.000000000000000000e+00
6.238688982117851500e-01 3.870596251306540614e-01 2.701696056387217215e-01
5.515436772510259322e-01 1.532902260760881097e-01 0.000000000000000000e+00
4.286465658466274142e-01 6.044175975437631188e-01 0.000000000000000000e+00
6.140174371780334761e-01 3.425234504280603165e-01 0.000000000000000000e+00
7.301593558215196955e-01 3.329890337371306241e-01 4.936101384897085831e-01
1.043651492136675962e+00 -2.338341736040872032e-01 5.905979572515519527e-01
4.337201229119420631e-01 5.042161274758867329e-01 4.431320192617382858e-01
6.139421676076898260e-01 5.463942471710759863e-01 4.108436836174811368e-01
4.648624490657469188e-01 5.048339292529451239e-01 0.000000000000000000e+00
5.231091460042999186e-01 1.254836773658062343e-01 0.000000000000000000e+00
5.318453411754499038e-01 3.249713736653676577e-01 0.000000000000000000e+00
7.118863410151043958e-01 4.766946003205033700e-01 3.379687251759873057e-01
5.630807705285806319e-01 2.533951419361586410e-01 6.895227972550928008e-01
1.133347764502602661e+00 3.477311731954733087e-01 2.576127144210618169e-01
4.612904813857734432e-01 -1.389928162207887397e-02 0.000000000000000000e+00
8.715741476798817278e-01 6.184099381058798528e-01 1.015057473190548176e-01
5.295541579366369600e-01 5.015584549014521221e-01 0.000000000000000000e+00
2.570065793691633793e-01 8.394302551795105316e-01 0.000000000000000000e+00
2.173316056002132513e-01 7.116244461691378920e-02 2.948106769406964034e-01
6.793108254039137428e-01 5.224005314879395234e-01 4.850433987781959111e-01
5.250365926637008407e-01 1.784484870408191703e-01 0.000000000000000000e+00
5.093754654427271600e-01 1.575873671846751423e-01 5.339962517442042866e-02
6.179846381455046389e-01 -3.878038493488500382e-01 0.000000000000000000e+00
1.008389625596249450e+00 4.380926831353827433e-01 2.413641973875626512e-01
7.032118849685384809e-01 4.708254806416496407e-01 0.000000000000000000e+00
1.373809491245481240e-01 7.329717676535080217e-01 0.000000000000000000e+00
6.803473660735263051e-01 3.487679195376318653e-01 4.838998800650371468e-01
1.890773276374746459e-01 5.524798390258444103e-01 0.000000000000000000e+00
4.464783575183566278e-01 8.001546325403838811e-01 1.472369884660342798e-01
4.157291840266952310e-01 3.790651666643343187e-01 0.000000000000000000e+00
6.667335370528476579e-01 5.683695792873261210e-01 0.000000000000000000e+00
5.384879476728395842e-01 2.201798904408707180e-01 0.000000000000000000e+00
3.786576397623591106e-01 5.544375770258227476e-01 0.000000000000000000e+00
7.624873295808142215e-01 2.567024702686941939e-01 0.000000000000000000e+00
4.928101109609821506e-01 -6.131982019487058899e-02 0.000000000000000000e+00
4.147059553447985936e-01 6.970035186813074990e-01 0.000000000000000000e+00
8.283264293940195699e-01 1.930921209031510877e-02 0.000000000000000000e+00
9.388634892365925744e-01 3.071330724391239109e-01 4.583228730118104055e-01
2.833463534842642906e-01 6.038579360610667468e-01 0.000000000000000000e+00
6.669252865532775409e-01 3.363210875703879221e-01 0.000000000000000000e+00
6.539042423465208920e-01 4.242474172806931509e-01 0.000000000000000000e+00
5.684015846435838126e-01 1.502176423635601665e-01 0.000000000000000000e+00
6.014748624213792638e-01 3.006647862609779231e-02 3.898498361747428920e-01
7.691474836112568436e-01 2.279031271860958441e-01 0.000000000000000000e+00
5.238234089934000748e-01 4.477401093739966642e-01 2.519218736722612650e-01
5.259744527020074889e-01 -1.129814623564251441e-02 0.000000000000000000e+00
5.203082329968349296e-01 4.358106749971335514e-01 0.000000000000000000e+00
3.082065005426629645e-01 6.344556882497424111e-01 0.000000000000000000e+00
4.817090807303776590e-01 4.701667061761363176e-01 0.000000000000000000e+00
6.296166367276535558e-01 3.290035020277608524e-01 0.000000000000000000e+00
-3.693967725417768300e-02 9.890298259853690377e-01 0.000000000000000000e+00
6.030470220515963264e-01 3.681441969463650210e-01 0.000000000000000000e+00
5.964330864141469402e-01 3.868011665489254902e-01 0.000000000000000000e+00
8.890679183484663239e-01 2.465122277701552456e-01 2.309563488188398628e-01
7.865950720670195073e-01 5.622701906065622479e-01 4.070546076488522624e-01
9.442086273407555019e-01 3.737748328504454376e-01 2.364861121234748120e-01
2.261058059206192405e-01 7.704021903369532298e-01 0.000000000000000000e+00
3.771077808706138068e-01 5.051046307614488473e-01 0.000000000000000000e+00
9.780866565026471449e-01 1.023778899407340459e-01 1.190334053477530851e-01
6.450574026068371936e-01 -1.293586169378602158e-02 0.000000000000000000e+00
1.885585741908271107e-01 8.735773229076297941e-01 0.000000000000000000e+00
7.247194330735693413e-01 2.426937085956094586e-01 0.000000000000000000e+00
7.917315751933827750e-01 2.104263136633397480e-01 1.639441164796766603e-01
6.227978138856662405e-01 7.444424959491358074e-01 4.150657318360895243e-01
7.766425649582769930e-01 3.457321869100751233e-01 0.000000000000000000e+00
8.358975400331418726e-01 2.358899865221444347e-01 3.695386686696544576e-01
5.198859341907456910e-01 3.521536157646731890e-01 1.506022294660278593e-01
4.610819146683635683e-01 3.835056319004903624e-01 3.106890786383942338e-01
5.070255005279962202e-01 4.166772900810262747e-01 0.000000000000000000e+00
1.022035346122585953e+00 9.648813732104246643e-01 0.000000000000000000e+00
7.077727321844837771e-01 4.199060383578896438e-01 0.000000000000000000e+00
5.503857132446784428e-01 6.482285956494800994e-01 0.000000000000000000e+00
5.109272630236115775e-01 4.238968272726426623e-01 0.000000000000000000e+00
8.196806592638403721e-01 3.388895284830415466e-01 0.000000000000000000e+00
8.518713784816258627e-01 3.234604082008796233e-01 0.000000000000000000e+00
8.518499565512254179e-01 3.821355329495312869e-01 0.000000000000000000e+00
8.637384047062298675e-01 2.486165264765450855e-01 3.543037774425903397e-01
2.638639842540289049e-01 6.650588277181205266e-01 0.000000000000000000e+00
7.862451900159768137e-01 5.011247930295360531e-01 0.000000000000000000e+00
7.968583857297513173e-01 6.671937695706491311e-01 2.063283022631635655e-01
5.698263075952674228e-01 3.973238336237538970e-01 0.000000000000000000e+00
6.322626892268258247e-01 1.453673253738734239e-01 0.000000000000000000e+00
4.987298626233893639e-02 8.898529981112535125e-01 0.000000000000000000e+00
6.797184603028398886e-01 4.900293951634375755e-01 0.000000000000000000e+00
6.136632258606793400e-01 1.901763632207198462e-02 2.960513860593205759e-01
5.273435384940134973e-01 3.377063434207956405e-01 0.000000000000000000e+00
6.706254693468887140e-01 2.165041007131309758e-01 0.000000000000000000e+00
5.247340176329896577e-01 6.028074417553015429e-01 0.000000000000000000e+00
6.656755148063614458e-01 7.274643802487982258e-01 3.144587836102399336e-01
4.255681469811136708e-01 2.706696901005418709e-01 0.000000000000000000e+00
6.004153674316173861e-01 1.883590581046402646e-01 4.427470137039606346e-01
5.524530047744348193e-01 4.223823171496167150e-01 0.000000000000000000e+00
5.767963754431252310e-01 4.903212259096894066e-01 0.000000000000000000e+00
5.740275135687337160e-01 2.203427405401483519e-01 0.000000000000000000e+00
6.671768534592164013e-01 4.085038765301103325e-01 0.000000000000000000e+00
5.699665399526926413e-01 3.247101674927481696e-01 0.000000000000000000e+00
5.673005127650682100e-01 4.060652389105889881e-01 3.079024187989418682e-01
5.729947753440080005e-01 3.251570902717906275e-01 0.000000000000000000e+00
4.375487537770745838e-01 5.234161665827863352e-01 0.000000000000000000e+00
5.709500983956686815e-01 4.748361228215719487e-01 0.000000000000000000e+00
8.849194165763253350e-01 1.290136872810674351e-01 0.000000000000000000e+00
4.816158658974578621e-01 3.118897230149424438e-01 0.000000000000000000e+00
-9.984988954621965007e-03 1.019451332398908061e+00 0.000000000000000000e+00
6.688451332295095586e-01 1.377566174925136666e-01 0.000000000000000000e+00
4.282731907485098910e-01 4.940370362117915137e-01 0.000000000000000000e+00
7.487928543369479772e-01 6.640066051809387915e-01 3.562879813628891945e-01
7.885002735085525627e-01 2.388186111913719323e-01 0.000000000000000000e+00
1.136932863620244261e+00 3.006999738123099508e-01 5.157365170910254148e-01
6.036843724631373309e-01 1.532177970611767748e-01 0.000000000000000000e+00
7.421173845866477770e-01 5.976680514502678010e-01 3.992991701831600793e-01
3.781953567273595995e-01 6.251469519711818634e-01 0.000000000000000000e+00
5.673303315893708509e-01 4.058736645466654025e-01 2.761846019822348230e-01
2.479843241788599606e-01 6.220781961830841311e-01 0.000000000000000000e+00
3.503820774245005598e-01 6.947376479497258117e-01 0.000000000000000000e+00
3.385393941042299515e-01 6.709816949939888531e-01 0.000000000000000000e+00
6.276720114687434071e-01 3.780034731386532343e-01 0.000000000000000000e+00
8.447028727689682714e-01 2.810201479279985648e-01 0.000000000000000000e+00
2.036511550519034541e-01 6.026913075653284046e-01 0.000000000000000000e+00
5.179003143074342175e-01 4.313954999747160457e-01 0.000000000000000000e+00
5.007721506562180513e-01 2.793502255573385717e-01 0.000000000000000000e+00
3.563693256939881593e-01 2.780471760078556676e-01 0.000000000000000000e+00
2.447135317725048775e-01 6.319732082082604174e-01 0.000000000000000000e+00
6.377278844282721071e-01 4.329783020796704740e-01 0.000000000000000000e+00
2.747673059694107911e-01 4.921824921957963506e-01 1.456496930890871511e-01
8.995162795196244288e-01 2.033471091380181228e-01 3.276074383913620824e-01
5.958996788383845722e-01 5.403372114739073417e-01 0.000000000000000000e+00
5.988516513279497078e-01 1.057523517537479751e-01 0.000000000000000000e+00
8.599694923569644045e-01 4.686147609110771217e-01 0.000000000000000000e+00
7.028257472554870766e-01 5.731778206110388352e-01 0.000000000000000000e+00
3.773440193317562086e-01 8.407333366321729784e-01 3.295135687668335756e-01
6.619023958123804174e-01 4.485709015305748837e-01 0.000000000000000000e+00
8.250433594279109606e-01 -6.996796437484031905e-02 0.000000000000000000e+00
6.068548207654359539e-01 2.177337928031088943e-01 0.000000000000000000e+00
4.243701173179772468e-01 9.461214627969648516e-01 0.000000000000000000e+00
6.599913818836122825e-02 1.096070627860836755e+00 0.000000000000000000e+00
3.327460804177476694e-01 7.896982204345464051e-01 0.000000000000000000e+00
7.402373218527501519e-01 2.291421470188385046e-01 0.000000000000000000e+00
3.845626966870336894e-01 6.896723925518472020e-01 0.000000000000000000e+00
2.594940933192977361e-01 8.341347353090974304e-01 0.000000000000000000e+00
1.007408953400138030e+00 4.387438629533966239e-01 6.163682639941592267e-02
1.916150278551482788e-01 4.471784909400093877e-01 2.808039416802976529e-01
7.685680819235929384e-01 6.151529721748928425e-01 0.000000000000000000e+00
3.332723699335140566e-01 7.032396381408366759e-01 0.000000000000000000e+00
8.117972603424711275e-01 -2.209178177566104573e-01 0.000000000000000000e+00
4.536335415719616737e-01 2.586875491948786854e-01 0.000000000000000000e+00
6.201476224103422696e-01 -2.161562007493471604e-01 0.000000000000000000e+00
6.839642704483380742e-01 4.739831675368755270e-01 0.000000000000000000e+00
7.426051478558199914e-01 5.073682181868738317e-01 2.813040512055863251e-01
6.241473874254852561e-01 6.762733730797090281e-01 0.000000000000000000e+00
6.749556851588258688e-01 4.325553147089842287e-01 2.366019644198773531e-01
2.937179448615927502e-01 5.839890991820765320e-01 0.000000000000000000e+00
4.671449373886119583e-01 5.459070796202780684e-01 0.000000000000000000e+00
6.775196212927800943e-01 6.687718568502319938e-01 2.309944802494399152e-01
8.481037338134842507e-01 3.975982840288629916e-01 0.000000000000000000e+00
5.105931867546074088e-01 -8.861587549642879758e-02 0.000000000000000000e+00
4.379036585761388878e-01 4.700763726487287020e-01 0.000000000000000000e+00
7.008512620030251661e-01 2.486681877915164485e-02 4.373240924934040930e-01
8.146751243968476386e-01 6.367870827946875423e-02 0.000000000000000000e+00
4.852816342491479418e-01 5.131529933614732419e-01 2.072498070459373176e-01
4.753675112711188699e-01 5.732271236647215051e-01 0.000000000000000000e+00
7.083689727061028840e-01 2.552644607315179837e-01 0.000000000000000000e+00
8.388696197892168138e-01 2.975343611251499709e-01 4.238113972327878232e-01
6.674033527577123426e-01 5.834809428208521664e-01 3.588043447455099288e-01
9.160125702329754427e-01 4.134575872644634664e-01 1.735014867781308201e-01
8.951300158804788021e-01 1.114237571052432152e-01 0.000000000000000000e+00
5.460792973091228575e-01 4.814433971250275945e-01 0.000000000000000000e+00
7.249332561509911343e-01 2.821810439950090954e-01 0.000000000000000000e+00
4.931723683669646530e-01 7.335655995647096805e-01 0.000000000000000000e+00
5.688757248948778100e-01 4.266054985530473020e-01 0.000000000000000000e+00
6.812259851686230938e-01 5.604533936568837360e-01 2.844770106450982272e-01
6.005083965302344673e-01 4.162479881657488168e-01 0.000000000000000000e+00
2.122396593351261185e-01 1.158730763011968534e+00 0.000000000000000000e+00
6.809751256696013888e-01 7.123912808178186618e-01 4.407164611217038175e-01
6.485513646381976249e-01 6.294122130291956996e-02 0.000000000000000000e+00
1.351122284645179805e-01 8.985760222790715179e-01 0.000000000000000000e+00
5.867873959534520845e-01 4.925104234512867052e-02 0.000000000000000000e+00
6.598259961482555447e-01 6.341402982154237256e-01 4.306095729876058265e-01
5.242471904596377463e-01 -2.491355273823359084e-02 0.000000000000000000e+00
4.496680916491089253e-01 4.239565409273025054e-01 3.159875019622420123e-01
9.234403806602028419e-01 5.577642517647118936e-01 0.000000000000000000e+00
4.696428040496015699e-01 5.795220478582054913e-01 0.000000000000000000e+00
6.628403880116916502e-01 5.207555362980494928e-01 0.000000000000000000e+00
6.689533460102157214e-01 -5.112788683674240886e-02 2.087545967791727408e-01
1.541582029429716671e-01 9.511485191315511845e-01 0.000000000000000000e+00
6.292494917271242993e-01 3.194369376538133132e-01 0.000000000000000000e+00
1.284964495088712688e+00 -2.655659941654064937e-01 4.237986641787292452e-01
4.740783514774273844e-01 2.611318562876230320e-01 0.000000000000000000e+00
7.074206163842102768e-01 1.649544662693485098e-01 4.023122192950399079e-01
2.239527242271708296e-01 8.898978707680677003e-01 0.000000000000000000e+00
5.214354712195480301e-01 2.883494458738686816e-01 0.000000000000000000e+00
3.335302298963542800e-01 4.159144026274708139e-01 3.757824400997125114e-01
4.372810883722939579e-01 4.783489352292484842e-01 0.000000000000000000e+00
4.844546398658333697e-01 7.596433232189185869e-01 0.000000000000000000e+00
5.491430234011097644e-01 7.886381430844884299e-01 0.000000000000000000e+00
4.923265041457010049e-01 2.415020135628279663e-01 0.000000000000000000e+00
7.495269316248596159e-01 4.763107348472984670e-01 0.000000000000000000e+00
7.599584965199297493e-01 3.652276271760828141e-01 0.000000000000000000e+00
6.814751505199360126e-01 4.318140383925339609e-01 0.000000000000000000e+00
7.638129558689795706e-01 5.494273121809214455e-01 0.000000000000000000e+00
5.822097646649954106e-01 6.345565844903978681e-01 3.239797927217223927e-01
5.328985030899233699e-01 3.852940789876817540e-01 4.212597242710074408e-01
6.594049521673839287e-01 4.393044952462307196e-01 0.000000000000000000e+00
6.406013585164727075e-01 3.335767165283713975e-01 2.547522741820394954e-01
8.614481842943269019e-01 3.786468929912150116e-01 3.687628564572980050e-01
7.254904866136563379e-01 3.755077356578614411e-01 0.000000000000000000e+00
1.084246446010993292e+00 2.972303865601566564e-02 5.823358549313393251e-01
8.304304684985318596e-01 4.826036780694598072e-01 0.000000000000000000e+00
2.022819359437640907e-01 2.849833049127541429e-01 3.608746778584537296e-01
4.605187303215267924e-01 4.630692421176553220e-01 3.226783127739543122e-01
6.068130655177202959e-01 4.211403522309578040e-01 0.000000000000000000e+00
7.532381799748744111e-01 1.769835946658534498e-01 1.770894685213051378e-01
6.946155667180180515e-01 2.448417214602444103e-01 0.000000000000000000e+00
6.665935943437313327e-01 2.227942328674792360e-01 3.434364035713783903e-01
1.075306120408374255e+00 3.971533927836274902e-01 0.000000000000000000e+00
7.715968673913620179e-01 4.822138484247326939e-01 0.000000000000000000e+00
4.337867534093329258e-01 8.521733475168287164e-01 0.000000000000000000e+00
1.705668612431483488e-01 7.210140673816166634e-01 0.000000000000000000e+00
6.210014538458481503e-01 3.749920235820023429e-01 0.000000000000000000e+00
5.858544130523430926e-01 3.194146560897446196e-01 0.000000000000000000e+00
4.375759002504936435e-01 4.995546726750875743e-01 0.000000000000000000e+00
5.173648449378286385e-01 2.654139154634627129e-01 0.000000000000000000e+00
4.512981129350400744e-01 1.853602183510076884e-01 0.000000000000000000e+00
8.059332000213267344e-01 3.650751814534167750e-01 0.000000000000000000e+00
9.141568300073604769e-01 3.148875461013029842e-01 3.851622316208669350e-01
7.474678406528794117e-01 5.562821604093451944e-01 0.000000000000000000e+00
6.292448449155911838e-01 5.706932386200594953e-01 4.464787381487351769e-01
6.132310434035450619e-01 2.994623240258887931e-01 0.000000000000000000e+00
3.692193303488615630e-01 6.318920952553030990e-01 0.000000000000000000e+00
6.977671627014223610e-01 5.368569417974450309e-01 4.386130545325457319e-01
5.630667005278195969e-01 7.163483767591771745e-02 0.000000000000000000e+00
4.859054730232708064e-01 3.352459515094647902e-01 0.000000000000000000e+00
7.053275742370765933e-01 5.562021842944205874e-01 3.936493757722989706e-01
3.338565452176216475e-01 5.388647950263290021e-01 0.000000000000000000e+00
4.125054677233781497e-01 4.198023793482028587e-01 3.387693972821789190e-01
5.530449115205126054e-01 4.827094511047185232e-01 0.000000000000000000e+00
6.168568482865182112e-01 3.301009186363919046e-01 2.005380269977812269e-01
5.191873635952485300e-01 2.402979744820412655e-01 0.000000000000000000e+00
5.762893173795368140e-01 -6.610881221439468547e-02 0.000000000000000000e+00
3.430742286582071365e-01 3.871461628213920259e-01 3.893467127463267063e-01
4.985491043319016935e-01 -8.062434393644823949e-02 0.000000000000000000e+00
6.294830888102735944e-01 3.467093748880731852e-01 0.000000000000000000e+00
3.344925260001085920e-01 5.185186695457676409e-01 0.000000000000000000e+00
4.275827434023555806e-01 5.060376660537626581e-01 1.689563516001020282e-01
5.696038429631592459e-01 4.006743746629797265e-01 0.000000000000000000e+00
2.169262105305933552e-01 5.895306940621543035e-01 0.000000000000000000e+00
6.066272452804959414e-01 4.561027933274108825e-01 1.638453224918035023e-01
2.012596033423703634e-01 5.740839838378154480e-01 0.000000000000000000e+00
5.193898602881684701e-01 2.618615252451566011e-01 0.000000000000000000e+00
5.174766046287849752e-01 2.257923308307354660e-01 0.000000000000000000e+00
7.989174498899076493e-01 4.786180260464952818e-01 0.000000000000000000e+00
4.501771867442055930e-01 3.669663272190446524e-01 0.000000000000000000e+00
6.108681951653770481e-01 4.274678736195167694e-01 2.629169859187379110e-01
2.686581153614220341e-01 7.333853452057185196e-01 0.000000000000000000e+00
4.580126611834068884e-01 7.073054997310969094e-01 0.000000000000000000e+00
3.874068208611378683e-01 6.338586786756250646e-01 0.000000000000000000e+00
3.663122960371202330e-01 4.410517543777203731e-01 0.000000000000000000e+00
5.378041214484153842e-01 5.608999165910769635e-01 0.000000000000000000e+00
5.875253827583349908e-01 4.177912517999909925e-01 0.000000000000000000e+00
8.449585480385017888e-01 4.255010947622911432e-01 0.000000000000000000e+00
7.662447297489864972e-01 -7.739608881919890493e-02 0.000000000000000000e+00
2.884330203025071704e-01 7.507348975646928047e-01 0.000000000000000000e+00
5.933402139534743602e-01 3.042183024235535216e-01 0.000000000000000000e+00
6.304906608089080322e-01 3.529742874122971941e-01 3.761368040650439060e-01
2.509410978402251136e-01 4.855036239317156443e-01 0.000000000000000000e+00
4.740368787982532917e-01 4.464920159445632253e-01 0.000000000000000000e+00
5.900297317985863099e-01 5.302357955985699256e-01 2.046911515312043184e-01
6.034058156375394777e-01 5.296134376972955193e-01 1.184584238685970625e-01
6.097411343342953316e-01 5.052445357207659971e-01 0.000000000000000000e+00
6.649453765472442823e-01 1.215446782961588923e-01 3.390788464887184439e-01
6.466009108520093251e-01 5.560598414718351812e-01 0.000000000000000000e+00
4.074508944722492476e-01 4.484159466023982521e-01 0.000000000000000000e+00
4.721380801901244872e-01 7.410513785461514402e-01 0.000000000000000000e+00
3.300053120777963755e-01 6.970465266489179745e-01 0.000000000000000000e+00
4.439496772483255693e-01 6.224176624640314071e-01 0.000000000000000000e+00
6.381918886729898155e-01 1.195016328407370043e-01 0.000000000000000000e+00
7.728831321699678458e-01 -1.935068975185587625e-01 0.000000000000000000e+00
7.658242717813033007e-01 3.395410091134039021e-01 0.000000000000000000e+00
4.061344884225377427e-01 6.470319028405087103e-01 0.000000000000000000e+00