POSCAR from GenerativeModels
1.0
2.000000000000000000e+01 0.000000000000000000e+00 0.000000000000000000e+00
0.000000000000000000e+00 2.000000000000000000e+01 0.000000000000000000e+00
0.000000000000000000e+00 0.000000000000000000e+00 2.000000000000000000e+01
Ag Al As At B Ba Be Br C Ca Cd Cl Co Cr Cs Cu Dy Eu F Fe Fm Fr Ga Gd Ge H Ho I In K Kr Li Lu Md Mg Mn Mo N Na Nb Nd Ni No O P Pd Pm Pr Rb Re Rh Ru S Sb Sc Se Si Sm Sn Sr Tc Te Ti Tm V Xe Y Yb Zn Zr
8 6 11 1 11 6 13 5 16 25 8 25 6 3 1 3 3 3 19 8 2 2 8 1 5 218 1 3 3 16 18 31 6 1 17 17 3 4 13 4 1 22 4 15 14 9 2 3 9 1 2 8 19 2 10 17 24 2 3 5 3 5 21 3 25 3 2 1 12 2
Direct
9.126038084081967705e-01 4.457169828639737652e-01 3.344152543818978973e-01
4.099951596840587520e-01 5.650538660112947031e-01 1.392829547846861082e-01
6.590313021342479871e-01 -1.170154768136193457e-01 0.000000000000000000e+00
6.883512264407261050e-01 5.616674999238946420e-02 0.000000000000000000e+00
6.582896592685082426e-01 2.655927843280980749e-01 0.000000000000000000e+00
1.162516552523427116e+00 5.338161374133632009e-01 0.000000000000000000e+00
4.197345114290120804e-01 -4.693297564284359957e-02 0.000000000000000000e+00
6.550700915005458480e-01 -2.061443771397155622e-01 0.000000000000000000e+00
5.568520004236366949e-01 -7.101177877935391791e-01 0.000000000000000000e+00
5.735103311510502122e-01 1.093393733133688484e-01 5.273048839762791706e-01
4.841450002956740883e-01 3.890468567743610162e-02 0.000000000000000000e+00
8.641544836326311430e-01 4.390771517037290739e-01 0.000000000000000000e+00
8.306101987276239829e-01 -2.175255403139564336e-02 3.930626286876073294e-01
9.324133131218866888e-01 8.125445063538738744e-02 5.746900882102524699e-01
2.272532461496763467e-01 6.064391649931133443e-01 0.000000000000000000e+00
7.242879459947595411e-01 3.037145380151351493e-02 2.359017096106770239e-01
3.843139978581423533e-01 3.720392382426241928e-01 0.000000000000000000e+00
6.498165346841143775e-01 1.499279630827276000e-01 6.103037973787932557e-01
9.089322322677093613e-01 2.585103342132102355e-01 0.000000000000000000e+00
4.224401656673917316e-01 1.329133718441952716e-01 5.559140747134135863e-01
6.033688422228753456e-01 2.239599332698753997e-01 1.548637916340912524e-01
4.591292350864608629e-01 1.880412698715970832e-01 4.870118584020143304e-01
3.895402555709823744e-01 -1.580807154656582725e-03 0.000000000000000000e+00
7.788017587730617919e-01 -3.999919819934172338e-02 0.000000000000000000e+00
6.184852060814760577e-01 -1.070112855283746889e-01 0.000000000000000000e+00
8.641939132597044049e-01 1.004882006194605104e-01 0.000000000000000000e+00
6.851583181808429401e-01 4.576819094798995069e-01 1.900223000369085646e-01
4.527600878737803036e-01 -2.673730851709221756e-01 0.000000000000000000e+00
7.959748111659167291e-01 1.028981931515460246e-02 2.672951829826555326e-01
7.376123208600137149e-01 2.771174339075024307e-01 0.000000000000000000e+00
1.144267616143660682e+00 3.507735833875117448e-01 0.000000000000000000e+00
5.858688604948945056e-01 1.417618885099909409e-01 0.000000000000000000e+00
5.882359807379898831e-01 1.023185310166089268e-01 0.000000000000000000e+00
8.051023020326489865e-01 -1.474709271150154155e-01 0.000000000000000000e+00
6.041436535251827333e-01 1.607109104665858101e-01 4.087003598238131419e-01
6.664042754794528012e-01 -8.764556086684243130e-01 0.000000000000000000e+00
7.568185010226234910e-01 -3.299573784504863383e-01 0.000000000000000000e+00
7.164488886340422136e-01 5.551149904075198815e-01 0.000000000000000000e+00
8.606453414948979086e-01 -4.331535144336040588e-02 0.000000000000000000e+00
6.848579035994235564e-01 -1.138552558751124710e-01 3.749445885564695047e-01
3.257352424437846006e-01 9.550094791675911576e-02 2.688261691787439123e-01
7.847497328266132000e-01 1.067899475918776542e-01 3.824884932978938057e-01
8.673892479046092507e-01 3.025006764734974318e-01 0.000000000000000000e+00
6.226629017198126448e-01 1.758163376514501053e-01 0.000000000000000000e+00
7.391677505772435985e-01 -1.307900820631184846e-01 0.000000000000000000e+00
5.417315316993940311e-01 5.040260866252405103e-01 1.263174644307085703e-01
5.911483738845226821e-01 -2.925937371496778461e-02 0.000000000000000000e+00
6.380719172241587911e-01 1.291477651806183236e-01 0.000000000000000000e+00
5.810505452350239741e-01 1.010474191269556954e-01 4.828707208452438504e-01
8.623930957710288503e-01 4.870574532312688110e-01 0.000000000000000000e+00
4.442073402882329436e-01 -1.994249635434288681e-01 0.000000000000000000e+00
8.986729401474247148e-01 1.263819618291388558e-01 0.000000000000000000e+00
7.362693550360978056e-01 -7.542276127433211741e-02 0.000000000000000000e+00
7.760735794227358042e-01 -1.057820897439887275e-02 0.000000000000000000e+00
6.177745152047294797e-01 -1.578273726335699401e-01 0.000000000000000000e+00
7.747011857684004132e-01 1.190399089761329243e-01 0.000000000000000000e+00
7.108925013600736476e-01 1.721752829811855623e-01 4.247276629102036960e-01
4.201808247072043034e-01 -2.296996822534436156e-01 0.000000000000000000e+00
7.840177537261903140e-01 -1.119152035707093873e-02 0.000000000000000000e+00
6.612413499446272436e-01 2.762121253981018043e-01 0.000000000000000000e+00
5.720904494072488466e-01 1.597001474397682363e-01 2.518586940626017512e-01
6.996909289770849583e-01 2.805712513548703768e-01 3.929285339655186338e-01
8.383796038276424278e-01 3.889411099770634372e-01 1.961304579132071568e-01
6.699299307051097552e-01 -2.837549333180409139e-01 0.000000000000000000e+00
6.853368808876773022e-01 -2.069387036027807714e-01 0.000000000000000000e+00
8.528591784158998657e-01 -6.100988134089819770e-01 0.000000000000000000e+00
6.162285205498325702e-01 -1.525956141458597592e-01 0.000000000000000000e+00
6.194368735659782077e-01 2.768357224239438308e-01 2.897429630366141762e-01
8.651862639853313830e-01 1.976524094605947024e-01 6.749987338959599903e-01
7.110343341217861823e-01 -1.617033564693357572e-01 7.561929509433540364e-02
8.207505533784472673e-01 5.362614494273327814e-01 3.903117885374240981e-01
5.994397375313585963e-01 -4.228743245450161670e-01 0.000000000000000000e+00
6.848202576778920081e-01 2.150319091820862560e-02 2.816506276674859421e-01
8.112296354849063418e-01 2.185885332683261684e-01 0.000000000000000000e+00
7.241186320204543447e-01 -1.975628091037662237e-01 0.000000000000000000e+00
5.308912850722661281e-01 4.151301489029879388e-02 3.671198239159454424e-01
6.539956971123134233e-01 -1.368409615776982058e-01 0.000000000000000000e+00
5.528269005960934068e-01 -1.373431582078668001e-01 0.000000000000000000e+00
5.119512634833304210e-01 3.097060954886954320e-02 0.000000000000000000e+00
4.370920394412377563e-01 3.448905688745678155e-01 1.915420030592669409e-01
4.548141842906423538e-01 -2.030264786838742452e-02 4.081189792360448987e-01
7.009513367305255649e-01 2.834530505007761825e-01 0.000000000000000000e+00
8.856202912955102313e-01 4.882792329237708451e-01 3.007409357493886493e-01
3.108134276858156575e-01 -1.328803829714553242e-01 0.000000000000000000e+00
6.482902533340921813e-01 2.901133739796994959e-01 0.000000000000000000e+00
8.256437373869998098e-01 -1.067661699942348275e-01 0.000000000000000000e+00
3.794454801481524919e-01 3.491795097103282952e-01 0.000000000000000000e+00
8.035420653432565619e-01 -2.044371408265346357e-01 0.000000000000000000e+00
4.332811201848234539e-01 5.431987250950531809e-02 4.899838963390938940e-01
8.481058382854634869e-01 3.707405582042992975e-01 4.181368093734084690e-01
4.337193086260842101e-01 8.304579659018385129e-02 0.000000000000000000e+00
1.008126324296794829e+00 3.879492436183542559e-01 4.023557252662285366e-01
6.487509550001852032e-01 1.253073000856551600e-01 1.000512622564517784e-01
5.364663515349981093e-01 1.483578004249982429e-01 0.000000000000000000e+00
6.778628476924906110e-01 -1.874739439696782028e-02 6.536835238946050453e-01
8.705658200360629762e-01 2.565973858384031914e-01 3.899562972437613517e-01
7.033408554890129283e-01 1.094999531104430268e-01 4.182983840546707910e-01
7.157365260659197537e-01 -2.892426590423777810e-01 0.000000000000000000e+00
7.790585145742957573e-01 6.073808866125751660e-02 0.000000000000000000e+00
6.142695164304815547e-01 1.062253040974320273e-01 2.744052205818118262e-01
4.859122892689451412e-01 -3.178704940777028476e-01 0.000000000000000000e+00
8.048084263482686573e-01 3.243772548431116398e-01 0.000000000000000000e+00
6.804946296694974750e-01 1.181112103182047068e-01 0.000000000000000000e+00
7.346481747204038903e-01 1.612101216263921444e-01 0.000000000000000000e+00
5.459544814785103339e-01 1.474648372663170948e-01 1.153598929577166476e-01
6.735731829609419297e-01 -4.412114845176411393e-01 0.000000000000000000e+00
4.961074143680574977e-01 3.574077629032523795e-02 3.626237092580746335e-01
8.336613625293328722e-01 -3.613961715226323701e-01 0.000000000000000000e+00
6.038879416682281231e-01 4.598221770098988026e-01 3.072275720290185141e-01
7.421558669503973693e-01 1.199983962037998175e-02 0.000000000000000000e+00
5.892928247375920359e-01 1.401581543742913549e-01 1.429291409822862624e-01
4.524646101170392010e-01 -4.632159264377211372e-02 0.000000000000000000e+00
5.122850521317798833e-01 -1.989434834408516650e-01 0.000000000000000000e+00
7.257802453032615730e-01 -2.593374214777077746e-02 0.000000000000000000e+00
1.067090528738656507e+00 4.542241108884397249e-01 3.704610558781682439e-01
3.902106080774648822e-01 -1.840289558069154729e-01 2.921918308710418355e-01
9.763015961504741824e-01 -4.751850353441278152e-02 3.763680486549287885e-01
1.099956669419069666e+00 2.170572105710010247e-01 4.502030885175174468e-01
6.063364150014837195e-01 1.288785534683748457e-01 0.000000000000000000e+00
7.852173706284513166e-01 1.693233509575176043e-02 0.000000000000000000e+00
6.857152359021655430e-01 2.885487004060902638e-01 0.000000000000000000e+00
7.242069191353250890e-01 -3.422493071539507437e-01 0.000000000000000000e+00
3.961133053671852533e-01 4.859831645412141521e-01 0.000000000000000000e+00
5.495003486497117562e-01 3.725080580844963851e-01 0.000000000000000000e+00
7.485264595611546001e-01 1.901212277119368466e-01 3.288800876207549351e-01
9.147036416600203834e-01 5.351864728051773934e-01 6.707256989888876753e-01
5.721174668099092697e-01 4.239939025877732526e-01 6.499933131469585179e-01
5.387303259672785449e-01 6.330556039466317397e-02 0.000000000000000000e+00
7.380027258760271103e-01 9.025688617101756961e-02 0.000000000000000000e+00
6.371274971955878108e-01 -1.703956555394965378e-01 0.000000000000000000e+00
5.676740590364518502e-01 4.102372762765984504e-01 0.000000000000000000e+00
6.246636413186853476e-01 -1.466766353867301476e-01 0.000000000000000000e+00
5.099404139668631819e-01 2.558787438906282574e-01 3.567168809873132451e-01
6.813186215403030932e-01 3.333911932103459375e-01 5.885970552969775893e-01
6.725490680708088309e-01 1.312725633468333486e-01 0.000000000000000000e+00
5.415511441797062897e-01 3.653612208066824296e-01 2.194299302603317514e-01
4.807929285534481290e-01 4.825990476108965588e-02 0.000000000000000000e+00
6.375881715402508254e-01 3.553809543754795630e-01 2.005672423551019268e-01
7.856433610713732252e-01 1.065939057324907235e-01 2.922214412587467169e-01
2.594155452157387298e-01 -1.060976919173970412e-01 0.000000000000000000e+00
4.746125771482803124e-01 3.852422530321426564e-01 0.000000000000000000e+00
6.185394444567320349e-01 1.266850271032403663e-01 0.000000000000000000e+00
4.766281897556474689e-01 -1.299812304160381515e-01 0.000000000000000000e+00
5.448157201590867471e-01 -5.792643653949336446e-02 0.000000000000000000e+00
1.209240643114985581e+00 1.092472391605112669e-01 1.398897770225118187e-01
5.459470993204809108e-01 2.354890672818055197e-01 4.695529832021416716e-01
5.310282469509081116e-01 7.752073413093474308e-03 3.394981180276196442e-01
4.687779211783361655e-01 3.105711398182270377e-01 6.243023777124564466e-01
9.225138671844954619e-01 3.918778969418794667e-01 0.000000000000000000e+00
9.679818594121697428e-01 3.997918031416958229e-01 0.000000000000000000e+00
6.916866290691753294e-01 1.348322382121083240e-01 0.000000000000000000e+00
8.464602126195652776e-01 2.681176200835200252e-02 0.000000000000000000e+00
1.097085142942410441e+00 1.947710354426792634e-01 0.000000000000000000e+00
6.511616985915161804e-01 2.016815827670656036e-01 5.511989304643795107e-01
7.892691494815423647e-01 1.181207732294634605e-01 0.000000000000000000e+00
9.756079413378426768e-01 -1.456640502731261222e-01 0.000000000000000000e+00
8.013696060278997502e-01 9.666179224004234349e-02 5.189995354679689532e-01
7.427388420949048164e-01 -6.710924752178537567e-02 9.714553756808841367e-02
3.446218287460864893e-01 1.337397907478968806e-01 0.000000000000000000e+00
5.277077349581895671e-01 1.790756675395184239e-01 3.776478361942954276e-01
5.633899876210102242e-01 1.627543712856042157e-01 0.000000000000000000e+00
6.970365239893003828e-01 1.237973800088754128e-01 0.000000000000000000e+00
1.015774862717157445e+00 5.978894628324292748e-01 4.679626679859484328e-01
5.144002892395774795e-01 2.765570881699108696e-01 4.298878356099313791e-01
5.809164709206848798e-01 1.759092220991076427e-01 2.025186616795069394e-01
5.690661935869635313e-01 -2.769577687419522150e-02 1.303979108453150459e-01
1.011652343442432489e+00 -2.251347094869589061e-01 0.000000000000000000e+00
5.228425928955346969e-01 -2.723177981546172077e-01 0.000000000000000000e+00
5.515017115085293353e-01 -1.311363004490302409e-01 0.000000000000000000e+00
5.427237083551300634e-01 -2.761980214642874021e-01 0.000000000000000000e+00
7.215614052712936433e-01 -9.157064269972448045e-02 0.000000000000000000e+00
9.756023662846052824e-01 -4.625377212591565979e-01 0.000000000000000000e+00
7.312712798222329447e-01 8.231523129241957726e-02 0.000000000000000000e+00
8.080022631585143111e-01 -2.864858280540616420e-03 0.000000000000000000e+00
7.579977615075698116e-01 1.098984662057544526e+00 0.000000000000000000e+00
6.623674374911646678e-01 8.308398692524410212e-02 0.000000000000000000e+00
5.823093845901372578e-01 -8.423828628392682205e-02 0.000000000000000000e+00
6.148826381739113112e-01 2.364651812516831431e-01 0.000000000000000000e+00
4.271090422668418762e-01 7.431454379793200893e-02 0.000000000000000000e+00
4.843715117305942286e-01 -3.474660732052556877e-01 5.111367827153604493e-01
4.480277223239610418e-01 1.630307040556333575e-02 0.000000000000000000e+00
1.004796473451525785e+00 6.556818999597480158e-03 5.375480449417188167e-01
9.336236979503879096e-01 7.386184236865733777e-02 5.075343450447595828e-01
7.380527400489677037e-01 3.265129469138785545e-01 0.000000000000000000e+00
9.102616748851333206e-01 -6.154066251629064510e-04 0.000000000000000000e+00
7.276024475054270191e-01 -2.852153172054485708e-01 0.000000000000000000e+00
8.334551704529773453e-01 -4.004785872467531149e-02 0.000000000000000000e+00
7.849033417907859134e-01 4.329872075187979341e-02 0.000000000000000000e+00
8.773706166829186026e-01 -3.563296370722568440e-02 0.000000000000000000e+00
8.981693925938659673e-01 6.126835762171733979e-02 0.000000000000000000e+00
9.339722378364716526e-01 -7.949393357355249989e-02 0.000000000000000000e+00
5.050268364430426926e-01 2.652238666158709401e-01 0.000000000000000000e+00
8.440390933058250500e-01 -3.720498246489380989e-01 4.442855391504143547e-01
7.488225560467542952e-01 6.783406611421272103e-02 0.000000000000000000e+00
7.689223551800419276e-01 6.889695162168674170e-02 0.000000000000000000e+00
7.177658909547952604e-01 -1.422753726462624435e-01 0.000000000000000000e+00
3.821723303643611569e-01 -3.333939104481760118e-01 0.000000000000000000e+00
7.884163452862174015e-01 -1.152809861823960169e-01 2.919037760766832745e-01
7.015335411518289765e-01 2.006978631438125493e-01 0.000000000000000000e+00
7.998174225100511681e-01 -5.120713392649189899e-01 0.000000000000000000e+00
3.145236568364558893e-01 5.032577353957399247e-01 0.000000000000000000e+00
5.098014732227829082e-01 1.957768405871200823e-01 0.000000000000000000e+00
5.833395214594235823e-01 -3.327559178079897428e-01 0.000000000000000000e+00
8.698287618973656876e-01 1.113033989477015817e-01 0.000000000000000000e+00
7.042614215440540226e-01 -1.866336423980419212e-02 0.000000000000000000e+00
7.586818987927130831e-01 2.826332394099845269e-01 0.000000000000000000e+00
8.043280362852565091e-01 2.967173002855612030e-01 3.610167276507040279e-01
7.580517010622719321e-01 -2.201678223078014085e-01 0.000000000000000000e+00
5.622013800560193841e-01 6.827553291136299052e-01 5.966793917524805257e-01
6.963811997504367746e-01 2.874278482480348007e-01 1.838768470760654417e-01
6.833273519772231630e-01 6.187047135224010841e-02 4.856223705721167683e-01
3.586429889874387378e-02 7.328742936604664138e-01 0.000000000000000000e+00
8.407328011832995163e-01 1.302431808809916269e-01 0.000000000000000000e+00
7.247169620877145224e-01 1.157189449349133037e-01 0.000000000000000000e+00
6.904032574295924096e-01 5.995819751399267261e-02 1.013393740912261753e-01
8.040724791496206558e-01 2.812523598005907122e-01 0.000000000000000000e+00
4.676102469107609183e-01 4.479339530484627296e-01 3.713866730803510041e-01
7.255109154315961817e-01 -1.245825181385591396e-01 3.414320219743529616e-01
3.972257820145216334e-01 9.826687314147741770e-02 3.623894129059974656e-01
5.820449348644312071e-01 1.900958025343819635e-01 4.469181678600671059e-01
6.961985930390769406e-01 1.305890838542225207e-01 3.295376571123354026e-01
6.011347697653294242e-01 -1.278065458300507995e-01 0.000000000000000000e+00
4.440950958339597854e-01 4.518969924856715004e-01 0.000000000000000000e+00
7.495100478119439691e-01 1.171790607941669560e-01 0.000000000000000000e+00
7.886402548911285448e-01 1.553975175522234187e-01 3.551692722573878136e-01
6.637539061994215395e-01 -4.966872308952536841e-01 0.000000000000000000e+00
6.231251064807015183e-01 -1.374708161188271660e-01 0.000000000000000000e+00
7.221272701681249462e-01 -8.257384870781869779e-02 0.000000000000000000e+00
7.580656891142284470e-01 -4.136149054640858580e-02 0.000000000000000000e+00
5.518122167059476002e-01 2.088725816330874174e-01 0.000000000000000000e+00
9.339044640755990168e-01 3.545209131635501665e-01 3.811869105610622421e-01
6.325996669128330918e-01 -5.311218130704475904e-02 0.000000000000000000e+00
8.898039555321117788e-01 -4.852864471560960347e-01 0.000000000000000000e+00
6.601083505205935786e-01 -2.011905826415723020e-01 1.841349109612220314e-01
3.747659024977891828e-01 3.123896062077204938e-01 2.012839812346188806e-01
0.000000000000000000e+00 0.000000000000000000e+00 0.000000000000000000e+00
6.793146019195748231e-01 -1.407947254366868073e-01 0.000000000000000000e+00
1.476215736060033645e-01 5.254080664012523716e-01 0.000000000000000000e+00
8.871222884849546686e-01 4.004142198011173548e-02 0.000000000000000000e+00
8.558649183269868566e-01 -6.251716817808050664e-02 0.000000000000000000e+00
6.576579043518844259e-01 -3.665441711069976627e-01 0.000000000000000000e+00
7.085111080110307880e-01 -1.467399252490300121e-01 0.000000000000000000e+00
6.924004321044688881e-01 -2.563681837474907077e-01 0.000000000000000000e+00
6.235465698900193310e-01 -1.185650687529276048e-01 0.000000000000000000e+00
6.835780417044761137e-01 9.628993296166488136e-02 6.243743916112063363e-01
7.657303678746919529e-01 -1.757159072811560474e-01 0.000000000000000000e+00
6.428455196388560555e-01 -1.444573327392673079e-01 0.000000000000000000e+00
6.463782362031250672e-01 4.154988043522265251e-01 0.000000000000000000e+00
4.552265803351130957e-01 2.848808832580111972e-01 3.948260372252374584e-01
5.452482028715027740e-01 -2.906336530520130523e-01 0.000000000000000000e+00
5.566852832260493766e-01 9.028517729739760078e-02 0.000000000000000000e+00
2.957167852116704410e-01 1.658934347999515557e-01 5.614515288360636402e-01
5.589891865931567727e-01 4.325066037140367081e-01 0.000000000000000000e+00
6.103922238938653821e-01 3.918405731636283029e-01 5.815793007735277076e-01
6.495433235986318721e-01 1.240590870898145015e-01 0.000000000000000000e+00
6.709981666987080429e-01 -2.149909933374334337e-01 0.000000000000000000e+00
4.685627185633596259e-01 1.230874010393697704e-01 0.000000000000000000e+00
6.784108141590867724e-01 -7.104366775742665396e-03 0.000000000000000000e+00
5.861451678804462384e-01 4.900722611044698862e-01 0.000000000000000000e+00
6.059534378263763399e-01 1.961421708376145379e-01 0.000000000000000000e+00
5.843575775580355236e-01 -3.273576175000150190e-01 0.000000000000000000e+00
1.903421468988544252e-01 -4.834067415811760249e-02 3.589938638475024257e-01
9.929860784526826079e-01 4.311715740463131219e-01 5.272922248084005448e-01
6.360467150286179816e-01 -8.368528042655642984e-02 4.079004331208828660e-01
4.852719347520589865e-01 -2.184783442229898398e-02 0.000000000000000000e+00
6.858132383773121177e-01 4.698047483330315410e-01 1.107681596298568660e-01
1.172585180870825416e+00 1.275476851930764655e-01 2.258567044017503189e-01
6.534806224349148929e-01 1.023426385117394144e-01 0.000000000000000000e+00
8.986546481389716678e-01 -1.828704622331112084e-01 0.000000000000000000e+00
1.284519884257427913e-01 6.016213656847154700e-01 2.499940107090988795e-01
8.895383926594541135e-01 4.868559508241618872e-01 5.250676174837617394e-01
5.589803416358369859e-01 1.867986582175109600e-01 0.000000000000000000e+00
2.262567661728729362e-01 2.983522779658520641e-03 0.000000000000000000e+00
6.883803826923416969e-01 -5.046614460098537425e-01 0.000000000000000000e+00
6.320327831330644353e-01 3.166068729946105442e-01 2.993441452360322552e-01
6.493169397898141959e-01 1.340580300525107127e-02 0.000000000000000000e+00
4.272250486127641134e-01 1.257033880029284623e-01 2.743043556007001005e-01
5.362754534517064631e-01 -2.794218541117179377e-01 0.000000000000000000e+00
8.352280158164510082e-01 3.816515211358324500e-01 0.000000000000000000e+00
8.039599338879432899e-01 2.123026799839304868e-01 0.000000000000000000e+00
8.049115313530417204e-01 5.266421965655976312e-01 5.449367366266962831e-01
5.860449195099902697e-01 8.764337468124128172e-02 0.000000000000000000e+00
6.530594131134872526e-01 -1.271114322213224845e-01 0.000000000000000000e+00
4.766500196320138105e-01 3.186152988950057274e-01 4.019352873506659707e-01
5.265807755898922471e-01 1.020077939151367019e-01 0.000000000000000000e+00
9.327829538195425707e-01 1.123449143765572478e-01 0.000000000000000000e+00
7.422733320419367953e-01 1.392480242432645454e-01 0.000000000000000000e+00
4.180148959835301437e-01 -8.641971881200039007e-02 2.032556293285663340e-01
5.750296691043733643e-01 4.100341107051710399e-01 2.126380871967984421e-01
7.706568996517109138e-01 1.192282421064532194e-01 0.000000000000000000e+00
8.078611234586374756e-01 5.629415189598735436e-01 5.460843310710681298e-01
4.213135138160770676e-01 7.003683540545213582e-02 1.663651521480949969e-01
7.044744275869958550e-01 2.520568934181726117e-01 3.413389969250859579e-01
3.882340378825774874e-01 1.463680290159211639e-01 0.000000000000000000e+00
6.199381646033592652e-01 -5.659449926241322260e-02 0.000000000000000000e+00
6.364025069648271415e-01 -7.903653288168799307e-02 0.000000000000000000e+00
7.100545367014435838e-01 6.740737956243658680e-02 0.000000000000000000e+00
7.800925454353659916e-01 -7.045961791439534494e-01 0.000000000000000000e+00
5.538217540564124297e-01 8.445204531502392697e-02 0.000000000000000000e+00
3.454953238894500345e-01 2.937267948892485769e-01 3.988621411367982983e-01
6.166101948760852602e-01 -1.171053157230397268e-01 0.000000000000000000e+00
7.773878849529251012e-01 1.383099099012330413e-02 4.003463711753942889e-01
7.401923943417183516e-01 2.641057558749146938e-01 0.000000000000000000e+00
7.394346418808073196e-01 1.017710292571961661e-01 0.000000000000000000e+00
5.175559162810062785e-01 -3.473069783192488380e-01 0.000000000000000000e+00
6.566032240488579586e-01 -5.088807564838204733e-02 0.000000000000000000e+00
4.932858067288582449e-01 1.081507014259527333e-01 0.000000000000000000e+00
4.722935903530003365e-01 2.514048640286735692e-01 0.000000000000000000e+00
6.456233074803163774e-01 3.129286702284570509e-01 2.529761321712469258e-01
7.734581918373492071e-01 2.219511707055615846e-01 0.000000000000000000e+00
8.788087586556404540e-01 -3.588981227552046072e-02 0.000000000000000000e+00
5.520120171788883701e-01 -1.752640102034486169e-01 0.000000000000000000e+00
6.140640639847259052e-01 -3.248296382442239505e-02 0.000000000000000000e+00
7.093306306007873818e-01 4.094312771246180205e-01 3.341291011541442924e-01
8.702271502686337312e-01 2.411063775768335082e-01 0.000000000000000000e+00
6.681534124693363497e-01 6.815218354569252401e-02 3.943929197063607006e-01
7.643615218544346224e-01 4.783790757188610687e-01 1.439124498077714032e-01
1.127914448076053899e+00 1.187028513557023546e-01 2.337713435267343431e-01
7.068088765102982229e-01 2.131587918652722013e-01 0.000000000000000000e+00
7.349559001384267098e-01 -2.552193739608215051e-01 0.000000000000000000e+00
1.186929384820822220e+00 5.239104700024974637e-01 0.000000000000000000e+00
6.056908711155748470e-01 -2.293420576574873859e-01 0.000000000000000000e+00
5.917644119204579223e-01 -1.912398960739705167e-01 0.000000000000000000e+00
9.402744548675436853e-01 2.053352665453911374e-01 3.507035130829421199e-01
6.339505240796210472e-01 1.825284831898014160e-01 0.000000000000000000e+00
6.648274688289519396e-01 2.742167901525938145e-02 3.965488252740758668e-01
7.302341574439523697e-01 6.330085468497526069e-02 3.508412558953568627e-01
9.536663998049874635e-01 1.360323352352610371e-01 3.858794756423424843e-01
4.545274158568635148e-01 -3.770431957004500845e-01 0.000000000000000000e+00
2.303141003029719469e-01 2.097849617363376495e-01 0.000000000000000000e+00
7.231513735076920968e-01 2.043592651201361354e-01 0.000000000000000000e+00
6.183424040623564100e-01 3.281101957139459513e-01 0.000000000000000000e+00
2.802936845884601569e-01 4.276968624411332520e-01 0.000000000000000000e+00
4.924596076546965406e-01 -2.774366304192339427e-01 0.000000000000000000e+00
6.965049059323766834e-01 1.976667995161222047e-01 2.812312324622499027e-01
7.281194099297501054e-01 1.310709999838939321e-01 2.653919802682722651e-01
8.337398798145181367e-01 -9.778731443124133449e-03 0.000000000000000000e+00
5.554998459194543381e-01 -2.323591769638311266e-01 3.452676745404092973e-01
3.506962474810969566e-01 -7.960843210327017694e-02 1.674155236283940695e-01
6.328438081973717377e-01 -1.471752617631840732e-01 0.000000000000000000e+00
5.490076778329565643e-01 -3.369403039049423398e-02 0.000000000000000000e+00
7.609386544474191494e-01 -5.025355493864420708e-01 0.000000000000000000e+00
8.765331201124683114e-01 2.525651587984767410e-02 0.000000000000000000e+00
5.076789782209711888e-01 7.427572626198009065e-02 0.000000000000000000e+00
6.750011559147081064e-01 -1.001671358599987016e-01 0.000000000000000000e+00
5.004469120618783018e-01 2.756218031625000675e-01 0.000000000000000000e+00
6.149647728827778437e-01 -1.581305864013453633e-01 0.000000000000000000e+00
6.807338199919472643e-01 2.590628046692813324e-01 0.000000000000000000e+00
5.113418994493532654e-01 2.473504917756441657e-01 0.000000000000000000e+00
5.140566027367657886e-01 1.695952306355447137e-01 0.000000000000000000e+00
1.296630256002760939e-01 7.438346691686336110e-01 0.000000000000000000e+00
6.716259030579306843e-01 4.681613888973390480e-02 0.000000000000000000e+00
8.188523123521855851e-01 1.888251820167772266e-01 0.000000000000000000e+00
6.198363534438334765e-01 -3.936034136578041576e-01 0.000000000000000000e+00
6.032268550679250607e-01 1.048757572830864016e-01 0.000000000000000000e+00
9.376593961432684310e-01 -3.344652148934630365e-01 0.000000000000000000e+00
6.123052455837542096e-01 8.030754538735784820e-02 0.000000000000000000e+00
7.439750305224032134e-01 7.055332272229886126e-02 0.000000000000000000e+00
7.385216637435889631e-01 -4.311809408128675081e-02 0.000000000000000000e+00
4.412702225775138043e-01 4.922355085726008994e-01 1.496615776342903326e-01
8.843889630708643423e-01 2.099519637143957285e-01 0.000000000000000000e+00
5.962704911601459656e-01 3.690109332705664436e-01 0.000000000000000000e+00
5.909414997578663620e-01 1.706537643854024733e-01 0.000000000000000000e+00
7.980489258172417388e-01 7.704527864003996029e-02 0.000000000000000000e+00
6.552462310363312836e-01 2.946911861992842496e-01 4.241958350823911150e-01
6.976046723981954578e-01 1.893478824974452746e-01 0.000000000000000000e+00
7.528140855961247269e-01 4.204002826223167677e-01 0.000000000000000000e+00
6.529703616172610747e-01 1.937858761292384768e-01 4.514165708063584415e-01
7.072932531731898065e-01 1.223623994066066478e-01 0.000000000000000000e+00
7.429293143597806015e-01 3.296295771123924911e-02 0.000000000000000000e+00
7.258329016484584839e-01 7.068608667892695152e-02 1.552889460017364831e-01
1.080125988716986951e+00 5.782057509930450534e-01 4.145593143683938830e-01
8.602948958346909869e-01 2.759275028848289235e-01 2.403745218187947064e-01
8.605050720414552101e-01 3.417526274962103816e-01 0.000000000000000000e+00
7.659195936759275458e-01 -5.003943238676389349e-02 0.000000000000000000e+00
3.632257290076079670e-01 3.498194132586465166e-01 0.000000000000000000e+00
7.631264398279826722e-01 -3.851943607302092953e-01 0.000000000000000000e+00
6.839796778996528603e-01 1.745641742624653991e-01 0.000000000000000000e+00
8.905800295162453750e-01 -1.177961453958695781e-01 0.000000000000000000e+00
6.037819216247729548e-01 8.048553085491300108e-01 3.970080368751415234e-01
5.466714975924940045e-01 4.839016968297757959e-01 0.000000000000000000e+00
7.650144737371635806e-01 7.970766665688877595e-02 2.192193083343748627e-01
7.832260255042199359e-01 -1.253249061239836148e-01 0.000000000000000000e+00
6.901802561208252307e-01 -2.083116438442988994e-01 0.000000000000000000e+00
6.084996376708048382e-01 5.283957767979452491e-02 0.000000000000000000e+00
6.519200881454549901e-01 3.521324429860406280e-01 0.000000000000000000e+00
8.743316104687111068e-01 -2.186187719058536594e-01 0.000000000000000000e+00
9.066466908560562032e-01 3.824956035223356920e-01 1.345254118266554499e-01
6.607065518362639223e-01 3.551295200715949285e-01 0.000000000000000000e+00