POSCAR from GenerativeModels
1.0
2.000000000000000000e+01 0.000000000000000000e+00 0.000000000000000000e+00
0.000000000000000000e+00 2.000000000000000000e+01 0.000000000000000000e+00
0.000000000000000000e+00 0.000000000000000000e+00 2.000000000000000000e+01
Al As B Be Br C Ca Cl Co Cr Cu F Fe Ga Ge H K Kr Li Mg Mn Mo N Na Ni O P Pd Rb S Sc Se Si Sr Ti V Zn
4 2 5 2 1 17 9 13 8 3 4 5 1 1 4 32 3 1 7 8 6 2 6 4 2 11 5 1 1 11 7 3 13 2 11 12 3
Direct
4.940759966406456094e-01 3.425567999374754535e-01 0.000000000000000000e+00
2.797275242151834318e-01 6.566048324001375613e-01 0.000000000000000000e+00
2.528888367422621464e-01 5.057353691420688468e-01 0.000000000000000000e+00
2.516194762309742483e-01 6.570686679981582179e-01 0.000000000000000000e+00
4.986723428863057972e-01 4.183168868823341491e-01 4.945028601789571709e-01
-2.051423734334043569e-01 6.669791473740609433e-01 0.000000000000000000e+00
-2.698619689796841747e-01 4.258562810641088880e-01 0.000000000000000000e+00
2.711848680838950809e-01 5.742472004758142345e-01 0.000000000000000000e+00
2.804859876332487234e-01 6.025975509469949642e-01 0.000000000000000000e+00
2.284149854253818557e-01 4.393240014759904888e-01 0.000000000000000000e+00
8.493472100855348206e-02 6.077307654116005375e-01 0.000000000000000000e+00
6.144429312793198150e-01 4.352076149332864130e-01 0.000000000000000000e+00
9.254617387731156608e-02 4.362803435605433489e-01 2.914016634940548300e-01
4.846464183922571944e-01 1.739016734634596384e-01 1.743781693715994452e-01
5.479611860095063847e-01 6.126028524639002271e-01 0.000000000000000000e+00
7.969214155569207536e-01 3.914905558879080427e-01 0.000000000000000000e+00
3.287745339892760299e-01 5.486458686950469454e-01 0.000000000000000000e+00
1.913513670980068193e-01 1.524390108542481581e-01 0.000000000000000000e+00
4.032751859558525442e-02 5.670144799269789537e-01 0.000000000000000000e+00
8.586916923522949219e-01 0.000000000000000000e+00 0.000000000000000000e+00
4.812600788157729292e-01 3.549383479217831372e-01 0.000000000000000000e+00
8.504264695628424020e-01 6.839490178064921988e-01 0.000000000000000000e+00
2.953057068760167603e-01 7.156262949890359604e-01 6.213400162378552860e-01
-4.394856244840779080e-01 6.883147995683969178e-01 0.000000000000000000e+00
6.057346238283225492e-01 3.325276034185640217e-01 0.000000000000000000e+00
3.061920936481956623e-01 6.301464405705824445e-01 0.000000000000000000e+00
2.185587385551035489e-01 5.822315003764704233e-01 0.000000000000000000e+00
6.076126294932930882e-01 5.989212712113264336e-01 0.000000000000000000e+00
1.287771420899197494e-01 6.701671393697141710e-01 0.000000000000000000e+00
4.172881529678107437e-02 8.506839616927373005e-01 0.000000000000000000e+00
3.268657914467152370e-01 6.643966830345411356e-01 1.910803813004108287e-01
4.389261421053642920e-01 6.740146942647368133e-01 0.000000000000000000e+00
6.672960698099767995e-01 5.635355852874021076e-01 0.000000000000000000e+00
5.447810392563997572e-01 6.584559810965617821e-01 0.000000000000000000e+00
1.027903880852226060e+00 7.378135505352886314e-01 0.000000000000000000e+00
2.795609587799738893e-01 1.209280315130513372e+00 0.000000000000000000e+00
3.881721042832994018e-01 3.991919363683532618e-01 0.000000000000000000e+00
6.044550493000537816e-01 4.593987537680593869e-01 0.000000000000000000e+00
1.528478918630049588e-01 3.880373244016042111e-01 0.000000000000000000e+00
4.666016806120361071e-01 3.425010234376357765e-01 3.160125658687388261e-01
5.407347119462261320e-01 5.934776464418926034e-01 0.000000000000000000e+00
7.807782694320528627e-01 6.833577029873585396e-01 0.000000000000000000e+00
3.963595387934535363e-01 5.041388911822370922e-01 0.000000000000000000e+00
5.462966681233315525e-01 7.439885482309005482e-01 0.000000000000000000e+00
4.395470401858179166e-01 6.915444869314635312e-01 3.206372255667642168e-01
3.857117913358421024e-01 6.295188310158557066e-01 0.000000000000000000e+00
6.129751336744319046e-01 1.634671359919057654e-01 4.688089510528603565e-01
7.338779073831560584e-01 6.894197722576781429e-01 0.000000000000000000e+00
3.669783102454262647e-01 7.201726929649279185e-01 0.000000000000000000e+00
3.310246356530033296e-01 2.204202995029904688e-01 0.000000000000000000e+00
6.042518978839890309e-01 7.256947542058158618e-01 0.000000000000000000e+00
6.412745693061988606e-01 4.933908260274868507e-01 0.000000000000000000e+00
1.723247046480991251e-02 6.055773612772070713e-01 0.000000000000000000e+00
1.450555440024423604e-01 5.946044963160259655e-01 0.000000000000000000e+00
5.527030343569905302e-01 2.475901857602508249e-01 2.047651187140560047e-01
7.427980399820152124e-01 8.305593083622405670e-01 0.000000000000000000e+00
8.910327725134395971e-01 5.408577499349059847e-01 0.000000000000000000e+00
5.348879363748618720e-01 6.441265334969463741e-01 0.000000000000000000e+00
3.313553979196417476e-01 6.628225904569093885e-01 0.000000000000000000e+00
1.886127999621913798e-01 4.741251233163238377e-01 0.000000000000000000e+00
5.862903643956686173e-01 6.841425514583608924e-01 4.134670892008479592e-01
3.196843180933606199e-01 4.895218952634896592e-01 0.000000000000000000e+00
3.336978715408658314e-01 4.400871856039760832e-01 0.000000000000000000e+00
6.373266373694166376e-01 2.339449016265076065e-01 0.000000000000000000e+00
4.050455307590078435e-01 5.151592864329800348e-01 0.000000000000000000e+00
3.647712710739916542e-01 5.611266338922792363e-01 0.000000000000000000e+00
2.876315909378350799e-01 1.617253257222550644e-01 4.080880417289646234e-01
2.379729679638907802e-01 1.632700552591941356e-01 6.865280040175514298e-02
8.834936791158598535e-02 6.464239655570831466e-01 0.000000000000000000e+00
6.917863546968774369e-01 4.250528426254561731e-01 0.000000000000000000e+00
4.550611813487763779e-01 5.671004460140116610e-01 0.000000000000000000e+00
3.511856260064214474e-01 4.329445085922400960e-01 1.184446733373680782e-01
6.265018109447937356e-01 6.896417035722826050e-01 0.000000000000000000e+00
3.830173266858620806e-01 5.762371984781825551e-01 0.000000000000000000e+00
3.641617212498802214e-01 6.814194951742618134e-01 0.000000000000000000e+00
5.696622987430862706e-01 5.509769310207669468e-01 2.637863295909741446e-01
7.390806311523309136e-01 1.538405176791621809e-01 2.050009665381927748e-01
3.203046615689274512e-01 6.663701836765913988e-01 0.000000000000000000e+00
2.477907665108093349e-01 3.831306112938226427e-01 2.540325926982044402e-01
3.643834122310654067e-01 5.260463391475843631e-01 0.000000000000000000e+00
1.962407434280085683e-01 2.398866819865032030e-01 3.328320528133354994e-01
8.378197663545317031e-01 5.141042740292469659e-01 0.000000000000000000e+00
5.307746490705884668e-01 5.151672341205054684e-01 2.554901152570272505e-01
6.402700517376807010e-01 4.542764121262543586e-01 0.000000000000000000e+00
4.941907253187212135e-01 7.312941211720951351e-01 0.000000000000000000e+00
7.459706912261627743e-01 7.621580144512071220e-01 0.000000000000000000e+00
-8.790290096199826486e-02 5.168428678959808842e-01 0.000000000000000000e+00
5.161739016985434914e-01 4.275084530833923591e-01 0.000000000000000000e+00
7.617874880473545218e-01 3.682142522095164239e-01 1.120778792777664679e-01
3.531699486157611201e-01 6.316276586316565966e-01 0.000000000000000000e+00
5.500706157632400117e-01 4.598196340199496301e-01 0.000000000000000000e+00
4.378303759965469499e-01 3.533675300541911923e-01 3.198665467723196265e-01
8.184784277461553126e-01 6.046695210093158135e-01 2.415116705405779829e-01
1.971980047664843028e-01 5.284502593989102159e-01 3.418916724415594910e-01
2.744800209495323884e-01 5.827745135691819733e-01 0.000000000000000000e+00
4.439819247972348615e-01 6.077546671276041756e-01 3.494790281259410047e-01
0.000000000000000000e+00 0.000000000000000000e+00 0.000000000000000000e+00
5.396626726518419792e-01 2.976812604768692694e-01 5.174609361454245438e-01
6.607711612410472890e-01 5.614294119126257421e-01 0.000000000000000000e+00
4.730354027192413824e-01 1.272783512465679445e-01 0.000000000000000000e+00
2.295302922298582127e-01 4.885202895959022129e-01 0.000000000000000000e+00
4.889796529576757589e-01 4.463691293399976168e-01 0.000000000000000000e+00
4.050983565916448370e-01 5.405749349177166874e-01 0.000000000000000000e+00
8.123830294837453003e-01 7.302629500616255598e-01 0.000000000000000000e+00
4.239879675061271058e-01 5.420566035163367768e-01 0.000000000000000000e+00
2.908271495382217520e-01 5.498487986212424738e-01 3.445280570839648338e-01
1.218905743173056111e+00 8.327961615103923743e-01 0.000000000000000000e+00
5.574741500553619389e-01 3.111950062091444202e-01 5.908439076885028118e-01
4.129100337442302981e-01 6.490422476134013463e-01 0.000000000000000000e+00
2.370284422092476806e-01 7.120601295388619967e-01 0.000000000000000000e+00
2.318253959335591086e-01 5.282035686705620625e-01 0.000000000000000000e+00
6.605783206999884527e-01 2.795990391792551044e-01 6.894737365284731023e-01
5.220959685945624207e-01 3.411294986587306566e-01 0.000000000000000000e+00
3.375027232101850405e-01 -2.010210180331812868e-01 0.000000000000000000e+00
3.510812393781390650e-01 4.624146449738366638e-01 0.000000000000000000e+00
5.134610211843936289e-01 5.896969713494225607e-01 0.000000000000000000e+00
7.044929983577608024e-02 4.610042930643928338e-01 0.000000000000000000e+00
7.817718261505999244e-01 4.653155562955220148e-01 3.894666248487788085e-02
4.049387609301087210e-01 4.889901828839979814e-01 0.000000000000000000e+00
5.078482387257208241e-01 5.969706200884318248e-01 0.000000000000000000e+00
5.419337870768649035e-01 5.193247094931935370e-01 0.000000000000000000e+00
2.726529208301736729e-01 3.781376930359023891e-01 0.000000000000000000e+00
5.554511311008544228e-01 2.400880415392844247e-01 0.000000000000000000e+00
7.167122100273451979e-01 1.693033427791301726e-01 0.000000000000000000e+00
8.820168529626064569e-01 4.012675952792812417e-01 1.324052032717980554e-01
3.687662266955133994e-01 3.401334736400518644e-01 0.000000000000000000e+00
-2.371900791003955788e-02 7.445963569794384895e-01 0.000000000000000000e+00
6.127368670314859989e-01 4.204822085147142952e-01 0.000000000000000000e+00
-6.286719335597190650e-02 3.885723664260334331e-01 5.282747373623822851e-01
7.595159677319833769e-01 7.448977287394111801e-01 0.000000000000000000e+00
8.674738470186138528e-01 5.966636048832186789e-01 0.000000000000000000e+00
1.246974162255455321e-01 8.524217060898554577e-01 5.328937532901690810e-01
4.054221824465910062e-01 5.104220645858513761e-01 0.000000000000000000e+00
1.057812585572869279e+00 6.871473071734750526e-01 0.000000000000000000e+00
-1.786636958468308389e-01 6.923401357537113388e-01 0.000000000000000000e+00
2.614501721677913171e-01 5.489885898480292292e-01 0.000000000000000000e+00
4.528320274093946551e-01 1.685554170994936207e-01 0.000000000000000000e+00
2.620399074715192844e-01 6.152882271056843155e-01 0.000000000000000000e+00
4.912698020271595301e-01 4.764203151070334208e-01 5.001344188214459363e-01
6.399272105398131627e-01 5.125183546084624009e-01 0.000000000000000000e+00
1.668949711473297626e-01 8.041754605791917587e-01 4.445404026027111044e-01
7.166872252755367434e-01 7.007174388905009765e-01 0.000000000000000000e+00
6.500952027015128865e-01 2.355769403067539125e-01 6.653359591340654022e-01
5.520937640808928348e-01 6.653107257472716807e-01 0.000000000000000000e+00
3.370165564794960211e-01 4.688256507787498251e-01 0.000000000000000000e+00
7.816841931233700080e-01 5.696796069051403011e-01 0.000000000000000000e+00
5.180807255789979804e-01 7.058301457188641548e-01 2.666914340982488030e-01
5.464153564339891966e-01 6.854245917718225778e-01 0.000000000000000000e+00
6.847421828607084260e-01 5.914671969657973039e-01 0.000000000000000000e+00
2.063759514802565587e-01 6.110095457326765178e-01 0.000000000000000000e+00
2.208672349810576474e-01 5.013253755551575486e-01 0.000000000000000000e+00
6.903316522408153855e-02 6.496271048855317698e-01 0.000000000000000000e+00
4.944125342361334052e-01 6.250891564433072034e-01 0.000000000000000000e+00
4.088443900539546760e-01 8.175159488790644247e-01 5.494200033782137282e-01
6.151191662135182536e-01 7.913700970063257678e-01 3.078680805371664109e-01
2.871798994630370139e-01 2.194632209051780025e-01 0.000000000000000000e+00
6.401803450015424168e-01 4.661657852000706814e-01 3.923985064061141781e-01
5.820704646916418090e-01 7.302099552543066530e-01 0.000000000000000000e+00
1.039275569158945034e+00 7.321999289440543901e-01 0.000000000000000000e+00
5.803970307778387738e-01 6.027074320580748656e-01 3.206932243934526028e-01
4.469912877288590991e-01 4.573756877840051693e-01 4.053607205740449304e-01
4.778597947715625960e-01 3.833106003574036080e-01 1.382242689027848304e-01
9.507183825427438784e-01 8.423323612442369379e-01 0.000000000000000000e+00
2.069530837999720152e-01 2.420951161760485082e-01 3.757983531546793543e-01
8.235981683101348816e-01 7.617903120048803434e-01 0.000000000000000000e+00
3.937674512416216022e-01 4.744690988038648971e-01 0.000000000000000000e+00
2.539910960235154391e-01 4.959916796307108910e-01 0.000000000000000000e+00
1.344176505568225544e+00 9.556082180981418928e-01 0.000000000000000000e+00
3.902302174802763091e-01 6.177050871569990109e-01 0.000000000000000000e+00
5.916772027633671049e-01 4.315918940810103965e-01 0.000000000000000000e+00
6.290240906527859721e-01 3.547472556083368644e-01 0.000000000000000000e+00
7.409957925080199459e-01 6.457470718814470878e-01 0.000000000000000000e+00
8.264418384822347363e-01 3.817774486551903657e-01 0.000000000000000000e+00
3.953628559233007822e-01 6.166136580011402080e-01 0.000000000000000000e+00
1.834910629758121914e-01 5.803360285741762103e-01 0.000000000000000000e+00
2.175737961124953879e-01 6.842367678063718817e-01 0.000000000000000000e+00
5.996847501391369128e-01 6.688681056550231929e-01 0.000000000000000000e+00
4.544566272954276842e-01 4.796073141912466919e-01 4.398786605202869016e-01
-8.199977668024005517e-02 6.377258075066536414e-01 2.398566130115300510e-01
8.144619484086851324e-01 7.383378609430302220e-01 0.000000000000000000e+00
4.783151663642800644e-01 8.385455009331472809e-01 0.000000000000000000e+00
4.005766635361213135e-01 5.636445153905584871e-01 0.000000000000000000e+00
2.860697458029544116e-01 9.755758592706395005e-01 4.310049539727787149e-01
9.222737900865221050e-01 7.889857753468464407e-01 0.000000000000000000e+00
-1.376620867680560245e-01 8.174126375772108322e-01 0.000000000000000000e+00
5.417702682372846912e-01 6.524948034780631012e-01 2.668053656470285029e-01
6.847919577241511346e-01 6.321579747472116928e-01 0.000000000000000000e+00
5.109823493126363081e-01 7.937242368754451327e-01 0.000000000000000000e+00
1.960121464727853091e-01 4.704883792168734757e-01 0.000000000000000000e+00
7.575411582799084220e-01 5.469826009260386757e-01 0.000000000000000000e+00
3.042522590833443008e-01 5.107774096908682671e-01 4.745842391127046422e-01
7.827056461936102716e-01 4.524480578285908772e-01 0.000000000000000000e+00
3.207608016823360053e-02 4.964444450972821388e-01 0.000000000000000000e+00
7.753396536807075634e-01 9.703260761577299220e-01 0.000000000000000000e+00
2.868372675317809595e-01 5.303112300530412604e-01 4.079873722109013112e-01
2.597016494058574931e-01 8.236061218588786037e-02 0.000000000000000000e+00
2.561498076173118754e-02 5.336048105543834685e-01 0.000000000000000000e+00
6.148361094517645897e-01 3.448763720979364233e-01 0.000000000000000000e+00
3.053567296515211638e-01 6.680757069398388648e-01 1.663897548577596419e-01
6.477720138307784259e-01 9.284503087311621883e-01 0.000000000000000000e+00
4.477514828791544499e-01 6.029975502897463313e-01 0.000000000000000000e+00
3.081797896387337143e-01 5.581341756140716370e-01 2.735569491455905888e-01
8.964490890605708584e-01 8.490288090942939014e-01 0.000000000000000000e+00
5.024219111944793204e-01 4.047936093512443101e-01 0.000000000000000000e+00
6.867936823061772111e-01 6.396618419246407061e-01 1.406516130036641332e-01
4.218580383939836143e-01 6.290307599485471801e-01 0.000000000000000000e+00
2.925362953756918127e-01 4.608687213438498187e-01 0.000000000000000000e+00
3.080731146399682263e-01 5.435802294747582586e-01 6.531635752338753598e-01
6.725341584159494346e-01 -2.211687252290679417e-01 3.657676348525731314e-01
4.240010103657231300e-01 4.874672487743709759e-01 0.000000000000000000e+00
3.297499307148282766e-01 5.440567263185024371e-01 0.000000000000000000e+00
3.021215010129758571e-01 5.401762718484430792e-01 0.000000000000000000e+00
6.044116986798812041e-01 4.065239652618837241e-01 0.000000000000000000e+00
4.099278157573045256e-01 2.800622380255946009e-01 0.000000000000000000e+00
6.675299341129150577e-01 5.731936172430925902e-01 0.000000000000000000e+00
3.893322875241399528e-01 4.914259130230440586e-01 0.000000000000000000e+00
5.056337594885791376e-01 5.671497959770256392e-01 4.439066934230024852e-01
1.811911124670926299e-01 6.517758888396038008e-01 0.000000000000000000e+00
7.071667898004138086e-01 6.813913862731917348e-01 0.000000000000000000e+00
-4.050953281284952467e-02 7.256267066901420648e-01 0.000000000000000000e+00
4.579248114121527991e-01 5.311203528434530474e-01 0.000000000000000000e+00
6.395845503822296108e-01 7.000933275282338331e-01 0.000000000000000000e+00
2.314278160211497015e-01 5.650616942632361583e-01 5.027599869503894814e-01
4.701871017383381091e-01 5.363193193618785992e-01 4.488855667663946836e-01
4.084735755621362596e-01 6.233706318098192201e-01 0.000000000000000000e+00
5.149315211148896010e-01 6.791989010374939184e-01 0.000000000000000000e+00
4.593324891380121677e-01 5.503540095954833067e-01 0.000000000000000000e+00
4.067224722871343179e-01 4.037337770212394705e-01 0.000000000000000000e+00
4.607529977232116547e-02 5.054159561477115092e-01 0.000000000000000000e+00
5.204516465514897883e-01 4.612139258628655814e-01 0.000000000000000000e+00
