POSCAR from GenerativeModels
1.0
20.000 0.000 0.000
0.000 20.000 0.000
0.000 0.000 20.000
C Ca Cl Co Cr Cu Fe Ga Ge H Mg Mn P Ru S Sc Se Si Sr Ti V Zn
1 9 15 1 3 1 2 1 3 2 9 3 9 1 5 13 1 2 1 10 4 2
Direct
0.807 0.270 nan
0.677 0.233 nan
0.231 0.725 nan
0.477 0.113 nan
0.256 0.631 nan
0.843 0.174 nan
0.267 0.883 nan
0.877 0.887 nan
0.215 0.375 nan
0.204 0.386 nan
0.286 0.756 nan
0.427 0.148 nan
0.318 0.146 nan
0.908 0.766 nan
0.609 0.626 nan
0.283 0.115 nan
0.984 0.256 nan
0.737 0.210 nan
0.697 0.525 nan
0.089 0.427 nan
0.045 0.356 nan
0.662 0.490 0.454
0.402 0.229 nan
0.203 0.692 nan
0.229 0.688 nan
0.918 0.894 nan
0.381 0.258 nan
0.501 0.467 nan
0.723 0.690 0.566
0.912 0.650 0.915
0.067 0.640 0.000
0.033 0.705 nan
0.620 0.000 0.000
0.305 0.362 nan
0.296 0.736 nan
0.150 0.322 nan
0.944 0.186 nan
0.670 0.797 nan
0.555 0.629 nan
0.321 0.702 nan
0.099 0.827 nan
0.968 0.454 nan
0.553 0.841 0.651
0.592 0.013 nan
0.687 0.648 nan
0.247 0.728 0.420
0.641 0.802 nan
0.529 0.912 0.193
0.519 0.353 nan
0.146 0.756 nan
0.721 0.246 0.145
0.449 0.200 nan
0.530 0.818 nan
0.416 0.293 0.720
0.418 0.158 nan
0.904 0.170 0.919
0.157 0.435 nan
0.841 0.277 nan
0.557 0.928 nan
0.879 0.563 nan
0.463 0.233 nan
0.916 0.006 nan
0.330 0.681 nan
0.796 0.662 nan
0.594 0.728 0.907
0.686 0.863 nan
0.161 0.036 nan
0.154 0.996 0.124
0.670 0.805 nan
0.239 0.974 nan
0.062 0.103 nan
0.434 0.333 0.954
0.808 0.107 nan
0.917 0.516 nan
0.123 0.829 0.809
0.528 0.103 nan
0.742 0.077 nan
0.185 0.231 nan
0.000 0.000 0.000
0.337 0.005 nan
0.314 0.387 nan
0.238 0.432 nan
0.353 0.727 nan
0.449 0.138 nan
0.423 0.672 nan
0.022 0.167 0.327
0.284 0.459 nan
0.470 0.720 0.349
0.151 0.308 nan
0.452 0.498 nan
0.062 0.759 nan
0.921 0.423 0.251
0.412 0.831 nan
0.443 0.258 nan
0.713 0.289 nan
0.797 0.840 nan
0.213 0.608 nan
0.285 0.718 0.703
