POSCAR from GenerativeModels
1.0
2.000000000000000000e+01 0.000000000000000000e+00 0.000000000000000000e+00
0.000000000000000000e+00 2.000000000000000000e+01 0.000000000000000000e+00
0.000000000000000000e+00 0.000000000000000000e+00 2.000000000000000000e+01
Ag Al As At Au B Ba Be Br C Ca Cd Cl Cm Co Cr Cs Cu Dy Eu F Fe Ga Ge H Hg In K Kr La Li Lu Md Mg Mn Mo N Na Nb Ni No O Os P Pb Pd Pm Pr Rb Re Rh Ru S Sb Sc Se Si Sn Sr Tc Te Ti Tl Tm V Xe Y Yb Zn Zr
6 9 9 3 1 6 3 7 2 18 22 8 24 1 17 4 4 7 2 1 23 4 13 5 201 1 8 11 28 1 17 6 5 20 13 8 9 13 4 14 1 13 1 7 1 3 4 1 7 3 4 5 14 3 12 7 21 1 2 3 7 11 1 3 24 8 2 1 13 1
Direct
6.800181104785965047e-01 7.785129508846995172e-01 0.000000000000000000e+00
2.745454819816013359e-01 2.550576214055289004e-01 0.000000000000000000e+00
2.492919509634118347e-01 5.383902245669702769e-01 1.851957273456655839e-01
2.429293946544032190e-01 5.195146618171510022e-01 0.000000000000000000e+00
5.228661843724783376e-01 4.318630323299148532e-01 1.276458715294680468e-01
3.628608778808271040e-01 3.338169096453555973e-01 0.000000000000000000e+00
6.725249784519320428e-01 2.232240001237910665e-01 2.399951193162934704e-01
5.673955044778463686e-01 -7.676171597079672893e-04 3.236600027446472350e-01
8.506447793495077736e-01 4.834703420280748176e-01 1.589332599531572132e-01
5.480172934122904405e-01 1.603215212673219092e-01 4.499525474489775023e-01
1.990162109367588084e-02 5.233900660940697946e-01 2.884764170682512230e-01
6.127700979621908406e-01 5.797612484735522598e-01 2.383478588060541359e-01
5.302607256024876037e-01 4.247745623707113172e-01 0.000000000000000000e+00
2.593185164168112511e-01 3.286445784059686126e-01 0.000000000000000000e+00
3.235806233719422664e-01 3.969334552382183245e-01 5.432954297305362390e-01
9.291535032812703321e-02 3.132175522237294896e-01 0.000000000000000000e+00
6.038516728941045741e-01 2.065659318220277596e-01 5.684416179937586966e-01
4.003676885909263072e-01 5.632143563955049892e-01 0.000000000000000000e+00
6.984959927333576069e-01 4.878349595486650703e-01 0.000000000000000000e+00
5.973704692152600471e-01 4.607582563743206627e-01 3.366198715216049964e-01
2.830252183556425383e-01 4.908048728180482989e-01 0.000000000000000000e+00
2.610608349167373721e-01 5.462046675947519470e-01 0.000000000000000000e+00
2.887872731138128035e-01 2.820564074794718046e-01 6.406322725115671801e-01
8.938689988808727893e-01 6.674852413294509734e-01 0.000000000000000000e+00
5.677348637297300327e-01 5.396281301597872782e-01 0.000000000000000000e+00
4.192607778094770143e-01 6.004762039006904528e-01 0.000000000000000000e+00
3.524656485566490804e-02 8.834191953226627758e-01 0.000000000000000000e+00
5.304389034355873056e-01 1.738258123148507250e-01 1.278667812252138880e-01
7.200331051404513794e-01 4.654287323205184013e-01 0.000000000000000000e+00
2.785359099104878222e-01 3.561737104934417086e-01 1.752581189833756214e-01
5.100335572756127256e-01 5.114699107183030558e-01 0.000000000000000000e+00
9.243880316096957372e-01 5.276304604963580891e-01 2.005631300531859340e-01
4.292650858939964786e-01 2.478572830943808203e-01 4.060894648070410007e-01
6.125696472105571777e-01 4.015528928653290253e-01 5.695085321556431213e-01
2.112017105240036052e-01 4.987851189513343719e-01 2.385816497400037317e-01
3.977006428651277403e-01 3.362754130754364024e-01 0.000000000000000000e+00
6.157174754544324502e-01 2.287712413546050261e-01 0.000000000000000000e+00
8.225439300179773205e-01 3.611164541400788686e-01 4.673898382715582223e-01
2.343531315355704692e-01 5.960876355356161671e-01 4.282829920612841734e-01
5.920468900639813681e-01 3.626082042988569842e-01 1.840080217601163248e-01
3.337082583053165852e-01 1.597155544397347304e-01 0.000000000000000000e+00
4.333505772048156235e-01 -2.257793416507825057e-02 0.000000000000000000e+00
5.021646589194899146e-01 6.918259219965317008e-02 7.135765933507515202e-01
7.517845167335724943e-01 6.574847554361035185e-01 5.869701048629610840e-01
5.499431163358552421e-01 4.011568553617963495e-01 5.392025610481255837e-01
7.040529017760830399e-01 5.175914794584742795e-01 0.000000000000000000e+00
6.511246350283736994e-01 3.927559871286542270e-01 1.278720616093852458e-01
4.886632800661521170e-01 1.305498595845567822e-01 1.962876491946815571e-01
2.636505088423080068e-02 8.429766514050112125e-01 6.605773626263515830e-01
6.299415868207365321e-01 5.236043143629313112e-01 0.000000000000000000e+00
4.389751682570282032e-01 6.221668024513491435e-01 0.000000000000000000e+00
9.019449492370275046e-01 3.479362055439090273e-01 2.896073507439294037e-01
3.507975967836507447e-01 2.165313493266148859e-01 1.094789832760553194e-01
7.675155032148976986e-01 6.031129673908575128e-01 0.000000000000000000e+00
6.321765455977464976e-01 1.207965123174163935e-01 0.000000000000000000e+00
8.688416308286206480e-01 2.321879164038090915e-01 5.323348905429933220e-01
7.904545795395773178e-01 5.152235209380316983e-01 0.000000000000000000e+00
7.204393160554694031e-01 3.095026818331551022e-01 3.242169496146030117e-01
7.571574766843460758e-01 5.213399146313987265e-01 1.397070665115198729e-01
1.019849275701252500e+00 1.093803222850644463e-01 0.000000000000000000e+00
5.895557386932201993e-01 4.075079559764295256e-01 0.000000000000000000e+00
7.130680816213366136e-01 1.650089346880438956e-01 0.000000000000000000e+00
5.359328664777933682e-01 3.246950732898774561e-01 0.000000000000000000e+00
-1.416056000035670337e-01 8.176760436328134318e-01 0.000000000000000000e+00
3.086699036515596628e-01 3.142240589427816033e-01 2.145173328080591801e-01
6.456159837887791575e-01 5.253508964446333973e-01 0.000000000000000000e+00
7.335418776701477794e-01 3.884481096013518986e-01 5.174769295189532992e-01
3.936635680159460415e-01 7.045586490038920902e-01 4.651340935102969976e-01
7.323477437093277587e-01 4.785148276009196788e-01 0.000000000000000000e+00
5.531753859612952295e-01 6.288670191857480551e-01 1.700638748550559187e-01
4.287333165334152874e-01 5.512162923580652407e-01 0.000000000000000000e+00
7.672179403870574843e-01 4.362566169976636044e-01 0.000000000000000000e+00
3.700952335037266394e-01 2.106844716946559837e-01 3.779421345204945215e-01
1.303099150740152590e+00 1.064670837278955284e+00 0.000000000000000000e+00
6.917018427081461640e-01 5.675006917163947229e-01 0.000000000000000000e+00
8.624033111463609291e-01 8.914398601100229635e-01 0.000000000000000000e+00
5.170715702460801921e-01 3.243865274946431398e-01 3.306316882178332861e-01
3.485826593991618871e-01 2.669781772769266315e-01 0.000000000000000000e+00
4.301400830891096705e-01 7.611171694306083646e-01 4.809363632942869060e-01
0.000000000000000000e+00 0.000000000000000000e+00 0.000000000000000000e+00
9.640461774055562039e-01 4.648269330643208797e-01 6.282357358780759071e-01
6.657626984777816892e-01 6.184682372807142059e-01 0.000000000000000000e+00
3.951717435085821961e-01 3.773919948180817219e-01 2.267363088611407118e-01
4.272033346047512392e-01 4.047556802389071784e-01 5.181126558569867369e-01
2.364706649115099202e-01 6.021964212129746752e-01 0.000000000000000000e+00
3.881528485151639618e-01 6.529476811206103015e-01 0.000000000000000000e+00
5.548681257212449980e-01 5.456269942972102882e-01 3.997485556613822322e-01
4.004133397952674978e-01 4.117812634756854440e-01 6.884602805107331580e-02
5.972971629247685321e-01 8.276230723248417798e-01 8.019679360168915361e-01
6.040796924925943001e-01 3.593034540584723047e-01 0.000000000000000000e+00
2.847027689705672326e-01 5.765516176889646793e-01 0.000000000000000000e+00
6.972843816080129820e-01 5.755681829673264804e-01 0.000000000000000000e+00
4.759214869699621708e-01 3.226251608287635797e-01 5.586103480582411684e-01
7.344827203922006387e-01 1.916415173980319242e-01 2.157277527327710054e-01
2.721456955538873457e-01 4.985942752452741100e-01 0.000000000000000000e+00
4.316216744114460546e-01 5.125517500506007185e-01 2.844131190319232338e-01
4.020119478046770833e-01 3.476347432807636029e-01 5.053594119558999509e-01
4.376290403397243844e-01 4.952370148622656787e-01 0.000000000000000000e+00
1.728103261742058860e-01 5.040376867188623988e-01 2.076532061665310458e-01
7.179266933962965558e-01 7.195441004836246046e-01 0.000000000000000000e+00
2.892992240586107489e-01 5.201652380976858892e-01 5.174239630185687444e-01
4.924598018631525242e-01 5.068773047358735573e-01 0.000000000000000000e+00
8.023324811967701420e-01 5.889567151545375134e-01 0.000000000000000000e+00
1.595858030735570754e-01 3.672028581342473563e-01 4.807712320089955194e-01
1.052385176771936770e+00 3.574107678091780205e-01 0.000000000000000000e+00
5.560408075273208794e-01 5.433679400980561125e-01 0.000000000000000000e+00
5.919581019312375458e-01 3.422518639180989197e-01 0.000000000000000000e+00
1.041018445178434559e+00 6.559355680103249320e-01 0.000000000000000000e+00
2.907088228538148300e-01 3.787162493943041497e-01 0.000000000000000000e+00
5.539943131748682470e-01 6.939909208952976805e-01 0.000000000000000000e+00
3.560840034254668662e-01 3.843348179667043230e-01 2.222696231624995411e-01
4.470021368217059754e-01 6.666485435165276918e-01 2.089406324093991962e-01
7.228351802455584840e-01 6.258647508471454346e-01 3.027424234820930149e-01
5.461594305078375511e-01 6.869957934219025342e-01 0.000000000000000000e+00
4.542963734228642192e-01 3.598807775633802164e-01 0.000000000000000000e+00
1.872200929430092309e-01 6.038841170056674645e-02 1.258562923305652781e-01
2.389967368371772594e-01 7.170710498893279050e-01 5.039608119685297094e-01
3.760073016825437042e-01 2.699172249833792225e-01 1.398309691841193025e-01
7.727501331955781705e-01 5.678492466218364454e-01 0.000000000000000000e+00
2.143899738123036247e-01 6.315524486034057583e-01 0.000000000000000000e+00
5.657225301584917210e-01 2.422577382519275346e-01 0.000000000000000000e+00
4.823235662263202217e-01 4.896835401142048960e-01 0.000000000000000000e+00
4.462801789998211976e-01 6.805875873701040524e-01 0.000000000000000000e+00
7.499603209792305991e-01 4.883950679778228388e-01 0.000000000000000000e+00
4.661738377444124559e-01 -7.847969779359220688e-02 0.000000000000000000e+00
3.922844854628918521e-01 1.403272247374577342e-01 0.000000000000000000e+00
3.549856012149759099e-01 5.600719844872638076e-01 0.000000000000000000e+00
5.147422708814665127e-01 5.898195650252329170e-01 7.254441406961975591e-01
4.038110290689578274e-01 3.448939651275413354e-01 0.000000000000000000e+00
6.675058979178331020e-01 3.759982030366781913e-01 4.574342697590859652e-01
7.683977747307788597e-01 6.754778388664761657e-02 3.899522346726917998e-01
4.694972852811014619e-01 2.416496546036207560e-01 0.000000000000000000e+00
5.666063751852433716e-01 4.730074917081448227e-01 0.000000000000000000e+00
5.079280713873530750e-01 1.901416903398249758e-01 0.000000000000000000e+00
4.622211576355559348e-01 3.517206329718503000e-01 0.000000000000000000e+00
6.040593373202530758e-01 4.428079137594622683e-01 0.000000000000000000e+00
2.158434631770113077e-01 6.311976419528848581e-01 2.184652725626736736e-01
5.250430575417286416e-01 5.315062977921002352e-01 0.000000000000000000e+00
6.247979422107068359e-01 1.648999318914234902e-01 0.000000000000000000e+00
3.237460744117341971e-01 4.643252086080966734e-01 4.287246215578368602e-01
5.272791330629664763e-01 6.124611702912076128e-01 0.000000000000000000e+00
5.294787190325951354e-01 3.641676353770633146e-01 3.386120596752186795e-01
5.047971524930744414e-01 2.554682284686937699e-01 1.299671274513584107e-01
1.626029753759958840e-01 5.024078423018042416e-01 0.000000000000000000e+00
3.568821128920021124e-01 6.179782432450976470e-01 4.343496131707740293e-01
4.883825035625792843e-01 4.595019160409106185e-01 0.000000000000000000e+00
6.532979212388574375e-01 2.788214296191116048e-01 4.801105430193001178e-01
4.357112775202061083e-01 8.198596149563499580e-01 0.000000000000000000e+00
3.244945750805644513e-01 6.332071865108610531e-01 4.072294757735082094e-01
6.582659612475838529e-03 8.002810653018279652e-01 0.000000000000000000e+00
2.680769897557189196e-01 4.083762411304185935e-01 0.000000000000000000e+00
2.508542350151083955e-01 3.932443203335580506e-01 3.980950642464773370e-01
4.047827397558598772e-01 3.287257435990955656e-01 0.000000000000000000e+00
2.339843208410443687e-01 5.588634544219845957e-01 0.000000000000000000e+00
5.657581241627330781e-01 2.009482122718103669e-01 4.174741027068284982e-01
7.938817151716839327e-01 5.318203049863072795e-01 6.480941153128561005e-01
1.267421119794487350e-02 5.611997266594648259e-01 0.000000000000000000e+00
2.502250884164329836e-01 3.650690389222585042e-01 0.000000000000000000e+00
5.842424420873927327e-01 2.641347704495067283e-01 0.000000000000000000e+00
3.736933743690294962e-01 4.432436569410782568e-01 3.711492157350702037e-01
4.530469723801908710e-01 3.978781716867418883e-02 2.790202407907397264e-01
7.069439805881239103e-01 2.290287923503795398e-01 2.756106759204096646e-01
3.455723053659174315e-01 2.033340013729841855e-01 4.431433430634665882e-01
6.483808723344028913e-01 5.317049297029134980e-01 0.000000000000000000e+00
9.880259610430641715e-02 6.487043169307065149e-01 0.000000000000000000e+00
4.554341307304314856e-01 7.358748044724788828e-01 0.000000000000000000e+00
4.119559985092444698e-01 5.315972711033926101e-01 4.857145205184292269e-01
7.788315121105048311e-01 5.672575977575744499e-01 1.283100309443596654e-01
1.397677531925358707e-01 6.531055092361737202e-01 2.959272149941485353e-01
3.690389616542598672e-01 4.297033264956138243e-01 5.381604782427543698e-01
5.371455516795016205e-01 4.328021565662740766e-01 0.000000000000000000e+00
4.693425955143726291e-01 4.808532871530051267e-01 0.000000000000000000e+00
6.490709627223333333e-01 4.528756151496058369e-01 0.000000000000000000e+00
6.423363731749255345e-01 7.717272938271797500e-01 3.957482745275824332e-01
7.160029578267084194e-01 5.188683088757009010e-01 0.000000000000000000e+00
4.837989186365589944e-01 1.343465113800256239e-01 5.888796929255522006e-01
3.046662829683072227e-01 3.124578389733602135e-01 0.000000000000000000e+00
4.080239936265722678e-01 2.580145524808392654e-01 0.000000000000000000e+00
3.426640036786490207e-01 2.926006497785693661e-01 4.153308981741299366e-01
3.326333854320515648e-01 6.406380767736292725e-01 0.000000000000000000e+00
6.139159483480525203e-01 2.127627417833927170e-01 2.503106568252673192e-01
6.479670706117606205e-01 4.650498451267905953e-01 2.945274419461796356e-01
2.228435429704097581e-01 5.487967590011824104e-01 0.000000000000000000e+00
4.840404661653818774e-01 5.173358028695043132e-01 0.000000000000000000e+00
5.128813212028058288e-01 6.445638374079619703e-01 0.000000000000000000e+00
4.572942216518854908e-01 1.023842585457198640e-01 0.000000000000000000e+00
4.820557031688166294e-01 4.019922348613725882e-01 4.856029175928924246e-01
6.658149826212680367e-01 5.507250255823025187e-01 0.000000000000000000e+00
4.264298848468658365e-01 6.433589915923525471e-01 0.000000000000000000e+00
7.052637042925030686e-01 -2.033907648768003007e-01 3.311665400443953855e-01
7.534417328499791733e-01 3.799575735458848857e-01 0.000000000000000000e+00
7.353530035512725327e-01 3.725743173706371758e-01 1.946254621204244195e-01
2.329405513661575444e-01 5.689023080073745131e-01 2.536733189854214476e-01
8.599961584337352249e-01 2.822350199003569315e-01 3.020372399093252946e-01
5.095552865649619623e-01 5.249359459344774548e-01 4.649869211621822096e-01
7.607185045697653081e-01 3.445008119352601650e-01 0.000000000000000000e+00
3.184077963693601188e-01 7.109987163333741922e-01 0.000000000000000000e+00
4.157940346448132374e-01 4.798261407253400224e-01 0.000000000000000000e+00
5.459606706659344555e-01 4.096238809184860052e-01 0.000000000000000000e+00
1.037984363709327784e-01 5.463419562689739717e-01 0.000000000000000000e+00
5.234519353863978930e-01 7.144789934073612070e-01 0.000000000000000000e+00
4.311091949128603718e-01 6.413592292536042239e-01 3.020780921728298818e-01
6.071476601663174932e-01 5.050366356897372233e-01 0.000000000000000000e+00
4.968189131202094266e-01 4.565822557663952175e-01 0.000000000000000000e+00
3.849138760693857630e-01 4.026855969806543145e-01 0.000000000000000000e+00
3.607394176255451779e-01 5.162163406157567191e-01 0.000000000000000000e+00
3.482337588473800594e-01 3.150729459810384103e-01 0.000000000000000000e+00
2.742429818618041804e-01 4.801933541236365066e-01 0.000000000000000000e+00
5.471215833307128129e-01 4.177512763955949504e-01 3.231017829504154726e-01
6.595541744968534958e-01 4.747866194858274547e-01 0.000000000000000000e+00
2.727951235538496055e-01 7.762632319017910287e-01 0.000000000000000000e+00
6.877905606288691187e-01 3.214088515513287003e-01 4.566772793969953170e-01
3.778634496341216620e-01 4.345581833883743750e-01 0.000000000000000000e+00
6.695516572765303209e-01 4.942059719870439682e-01 0.000000000000000000e+00
4.687739103319115141e-01 5.851848017227300192e-01 0.000000000000000000e+00
6.592100150522042235e-01 6.209033123202802873e-01 1.835818657878091065e-01
6.070133638801644693e-01 6.241173325049328424e-01 8.308819786103289751e-01
1.618357624019668428e-01 7.006625714463512455e-01 0.000000000000000000e+00
7.542719292340416271e-01 7.517043967813900052e-01 0.000000000000000000e+00
6.296058456822931637e-01 3.736629210052848649e-01 0.000000000000000000e+00
-2.242303708149544494e-01 5.028568127206424210e-01 0.000000000000000000e+00
3.008763114610134570e-01 6.728454852305765233e-01 0.000000000000000000e+00
8.637797118550005759e-02 4.964873502746489642e-01 1.206956857553900253e-01
5.589176731081739735e-01 6.061618755833722005e-01 5.377400172276980417e-02
3.071847326626158114e-01 -1.125238899852623042e-01 2.992684936669545159e-01
1.152411091493915629e-01 2.826318160885172848e-01 7.324891221536803387e-01
7.177982509694049718e-01 2.444872380988872829e-01 4.760239974844125976e-01
8.686354499079051994e-01 5.989498927377711057e-01 0.000000000000000000e+00
5.488220865113333513e-01 1.087765916088401230e-02 2.845446306124266300e-01
8.029559599777802426e-02 2.231857755493384943e-01 0.000000000000000000e+00
2.940550440255191855e-01 2.825607548519777357e-01 3.789357808764048929e-02
4.174203067683768253e-01 5.953967840078635554e-01 3.751041763913731675e-01
5.537702627871242678e-01 5.478150401284427318e-01 0.000000000000000000e+00
-2.598070394719753651e-02 6.823046227248102946e-01 0.000000000000000000e+00
7.264592235264260012e-01 3.213641062244472213e-01 0.000000000000000000e+00
6.515440022730965008e-01 2.569117195464680758e-01 0.000000000000000000e+00
5.875080565039109137e-01 4.271007629881193868e-01 0.000000000000000000e+00
4.549685044431717174e-02 4.512564506393546004e-01 0.000000000000000000e+00
7.130459371176089967e-01 5.603001880992302119e-01 4.481837406969286786e-01
8.449613668979245595e-01 4.391259501909120511e-01 5.471499604586650412e-01
5.192709551347838293e-01 3.780542101782836673e-01 1.318344719905851781e-01
5.463336756652144022e-01 2.829973701142616260e-01 4.738479745130872445e-01
4.604140112923977846e-01 1.794207728768436594e-01 3.213768297304006039e-01
3.961353496712237687e-01 4.369996792852071099e-01 0.000000000000000000e+00
4.732963870220215918e-01 2.206267326830707587e-01 2.736769275696353532e-01
6.212474280358898371e-01 4.923317420298538583e-01 0.000000000000000000e+00
3.199451193782923974e-01 3.760225341718299585e-01 2.872402686181556586e-01
4.400948196668418300e-01 6.186468382062582094e-01 7.429933943060051948e-02
4.408346750530542923e-01 5.418869132792039078e-01 0.000000000000000000e+00
5.515892579322078104e-01 3.555673848545948257e-01 0.000000000000000000e+00
4.231648998269459394e-01 6.739726357714704852e-01 0.000000000000000000e+00
3.809233941973129145e-01 4.556214511295697545e-01 3.654082436717286386e-01
6.362856505733393009e-01 3.459774958151742297e-01 0.000000000000000000e+00
6.060254238443505415e-01 4.066702844742802192e-01 0.000000000000000000e+00
8.686939818731187479e-02 5.727023312066860106e-01 1.608452428859123984e-01
4.075150649222230026e-01 6.488346524270688365e-01 0.000000000000000000e+00
4.239063627647172705e-01 3.241228885931345394e-01 0.000000000000000000e+00
7.015325851876842433e-01 2.075090708960986019e-01 3.148766788464700817e-01
5.818749282108590659e-01 4.906667036495488965e-01 0.000000000000000000e+00
2.042106924128666012e-01 7.075586086739151792e-01 3.779141537212467039e-01
5.892245425069785325e-01 4.006194617659297741e-01 0.000000000000000000e+00
-2.887570842054310027e-02 5.069750561803171296e-01 0.000000000000000000e+00
-3.476113482290741352e-01 7.622159459957844607e-01 0.000000000000000000e+00
5.645175178714033626e-01 4.417399483779879121e-01 0.000000000000000000e+00
5.928728323655434451e-01 5.991510324865185755e-01 0.000000000000000000e+00
3.988100342551765820e-01 2.798710095397526354e-01 0.000000000000000000e+00
5.566990999043899269e-01 4.375532747141972489e-01 3.924434441926738515e-01
3.135494486560095329e-01 4.775985951760094439e-01 4.415927514138486831e-01
4.634027708973562643e-01 4.404191657030911422e-01 0.000000000000000000e+00
3.525994751163310514e-01 7.792285879327727205e-01 3.199916060214549329e-01
-8.654585072670095691e-02 5.035756997702541815e-01 0.000000000000000000e+00
7.750254926017714485e-01 4.378941497284065676e-01 6.271433555798786585e-01
6.081251632438871013e-01 3.665013404565355959e-01 4.243085822337659962e-01
5.388821242749709528e-01 3.028800815875121177e-01 4.433686420679130435e-01
6.831387304769281910e-01 5.298898815547895547e-01 5.539641980484913963e-01
6.709963378372105769e-01 5.808600300525038618e-01 2.854249129655931361e-01
2.784254975383670949e-01 4.642236343596453096e-01 4.804405145019632339e-01
-1.424141330659622895e-02 5.262116663836885477e-01 0.000000000000000000e+00
6.493672034250006497e-01 4.329660950533293917e-01 0.000000000000000000e+00
1.657823222897478743e-01 7.713128184725923653e-01 0.000000000000000000e+00
9.557364691272145496e-01 6.365753584152623601e-01 0.000000000000000000e+00
8.927385289019529324e-01 4.775105172844376078e-01 2.558723626025245501e-01
5.776756906637227074e-01 4.847958391138877943e-01 9.696459443395166744e-02
-4.639966204066414690e-02 6.804097288082531225e-01 0.000000000000000000e+00
2.984534264149787397e-01 4.233245469870052791e-01 4.464269896949351057e-01
4.666912385973034372e-01 5.828420877591862226e-01 0.000000000000000000e+00
6.603493912137794464e-01 4.015545575433339121e-01 2.391659224899225222e-01
3.675822028576829492e-01 5.434983121344028056e-01 0.000000000000000000e+00
3.911983821906108716e-01 7.159769663574652165e-01 4.750848273120897858e-01
4.235914657935782035e-01 6.849942264625300536e-01 0.000000000000000000e+00
3.875591484545986010e-01 4.017130327716578186e-01 0.000000000000000000e+00
5.828617211263513731e-01 5.268981211358112482e-01 5.024538904004692830e-01
5.374995809067628638e-01 2.814665928678630191e-01 4.623189986256635020e-01
1.222533733753091711e-01 5.497855799914289632e-01 0.000000000000000000e+00
6.580013818648065005e-01 2.566217933251604411e-01 2.366118625372285456e-01
4.951944684531850438e-01 1.117271795631219478e-01 1.484017801448289653e-01
3.690014114136943579e-01 4.409879234252526148e-01 5.397550472921660569e-01
5.943101741013799844e-01 2.101191575026249980e-01 0.000000000000000000e+00
4.244366860337064340e-01 3.892527997030678089e-01 0.000000000000000000e+00
4.713332958889309143e-01 1.017247599422139714e-01 3.306946413420620567e-01
6.437849026497213245e-01 1.317815667860559037e-01 0.000000000000000000e+00
4.537248074428783529e-01 5.348543746658251941e-01 0.000000000000000000e+00
3.973654332416138857e-01 5.985921233006323838e-01 0.000000000000000000e+00
5.325230541035023135e-01 2.936715010080654942e-01 0.000000000000000000e+00
4.232297846716268630e-01 3.610742832542455094e-01 0.000000000000000000e+00
8.298144855204521164e-01 2.113420451034783154e-01 3.675913697335292385e-01
5.142016919481341430e-01 4.560410859496195624e-01 0.000000000000000000e+00
4.757454243321412868e-01 5.192200042936049309e-01 0.000000000000000000e+00
6.639111339158040304e-01 6.468634385692626498e-01 0.000000000000000000e+00
6.237923334474637649e-02 7.180127040664450178e-01 0.000000000000000000e+00
5.416418412195679322e-01 5.582546491026156854e-01 0.000000000000000000e+00
8.626239906014684378e-01 4.627251244474799297e-01 0.000000000000000000e+00
4.388011148795696315e-01 3.738872461988875795e-01 0.000000000000000000e+00
9.673640593569281521e-01 2.099539636166829482e-01 0.000000000000000000e+00
8.516091747667906553e-01 6.200344563473733084e-01 0.000000000000000000e+00
1.263544785683617944e-01 1.674716163011672476e-01 2.703058887178875214e-01
3.749994707398400795e-01 4.652832123481109861e-01 0.000000000000000000e+00
5.094264185143325685e-01 5.295769749167021923e-01 1.478716691275603345e-01
4.479325100536173387e-01 5.293196887037854292e-01 0.000000000000000000e+00
4.627299651118464974e-01 2.786964884503553286e-01 0.000000000000000000e+00
7.390690827072218250e-01 5.523867262156682001e-01 0.000000000000000000e+00
5.643226424364651272e-01 6.867757724163299216e-01 0.000000000000000000e+00
4.659703160137715905e-01 -3.863862523276728744e-02 3.173718191417209677e-01
2.696674757474846196e-01 4.255385204895545392e-01 5.352614524018792785e-01
6.679454088164509251e-01 1.661805650872534290e-01 5.939455289340406230e-01
3.999423482314523604e-01 1.903469939269595290e-01 0.000000000000000000e+00
7.602334685793595837e-01 5.500168496498792914e-01 3.930676196902301855e-01
2.914907824039543183e-01 5.424836957720819974e-01 0.000000000000000000e+00
1.816096852037621945e-01 5.419404695400980021e-01 0.000000000000000000e+00
2.269996216587858440e-01 1.819242081494680807e-01 3.236647551549434176e-01
4.968912854641303056e-01 5.413258668905100990e-01 0.000000000000000000e+00
3.552821198962813343e-01 3.669960270787175904e-01 0.000000000000000000e+00
3.060998118217492792e-01 3.033783317436974380e-01 0.000000000000000000e+00
7.876590173041431164e-01 4.169548381293385342e-01 0.000000000000000000e+00
4.230270658119190674e-01 2.383292532086559445e-01 2.862343214373178624e-01
4.407244005457202629e-01 6.860157873538250684e-01 0.000000000000000000e+00
1.066307901466998942e+00 6.719510276914117952e-01 0.000000000000000000e+00
6.053703636325001858e-01 4.352117036921511195e-01 0.000000000000000000e+00
8.575822912990267444e-01 4.316552471178567441e-01 0.000000000000000000e+00
7.422632269487795531e-01 5.315677742682306528e-01 0.000000000000000000e+00
8.150998438776859700e-01 -8.053165653799876367e-02 0.000000000000000000e+00
5.918867369131622924e-01 5.100627668751015475e-01 0.000000000000000000e+00
3.358603060809735030e-01 6.380641815752418067e-01 0.000000000000000000e+00
2.162688703490198705e-01 7.447174472400157619e-01 0.000000000000000000e+00
-3.414623679497985620e-01 7.484635874246768905e-01 0.000000000000000000e+00
4.230177978309057618e-01 6.062379582282650947e-02 0.000000000000000000e+00
6.745825240737932660e-01 4.020060036359597300e-01 0.000000000000000000e+00
7.277219666249852281e-01 4.484136998258645423e-01 4.336678276907568463e-01
2.668294428945738872e-01 7.235226704975441514e-01 3.074445029104972971e-01
1.009859842688015874e+00 6.381222475569678920e-01 0.000000000000000000e+00
4.725367757109768529e-01 3.748771738346858839e-01 0.000000000000000000e+00
2.915554721284194795e-01 4.806565101930106998e-01 0.000000000000000000e+00
4.588507757425801525e-01 3.881118166094192912e-01 1.990939975657305405e-01
1.584312494288429018e-01 5.005947859242770859e-01 0.000000000000000000e+00
6.023366230771975971e-01 5.436021184220394264e-01 0.000000000000000000e+00
3.227229976208159101e-01 3.905206136423803320e-01 0.000000000000000000e+00
6.050640223229009074e-01 3.651176082600011696e-01 0.000000000000000000e+00
6.112076683398877108e-01 1.810227213463979634e-01 2.191880332993004776e-01
2.934965197198402542e-01 6.101837074236338143e-02 5.028812706737507687e-01
7.283415445216673278e-01 4.573229117100729990e-01 0.000000000000000000e+00
6.359848887083654478e-01 3.670455186405472414e-01 0.000000000000000000e+00
6.173873644649571224e-01 5.168884083689951892e-01 1.908145536310277279e-01
5.303606551560399174e-01 7.412080072915594453e-02 0.000000000000000000e+00
4.711182070422721413e-01 3.507209043991261765e-01 0.000000000000000000e+00
3.514238006771075451e-02 4.255286055089642083e-01 0.000000000000000000e+00
3.854486690829916906e-01 4.485018726033869196e-01 0.000000000000000000e+00
2.346927955074405991e-01 5.239615470814894538e-01 0.000000000000000000e+00
4.998183954860829781e-01 3.105333821032285613e-01 0.000000000000000000e+00
6.731483863964682346e-01 4.997531534903046913e-01 2.269163582448229244e-01
6.755481123428908052e-01 5.232392731406297903e-01 4.546143103956257203e-01
5.432849007461094670e-01 4.468716177878589990e-01 0.000000000000000000e+00
5.872331820352695297e-01 4.753071653791594020e-01 0.000000000000000000e+00
4.472945139267372472e-01 4.924871796904775056e-01 0.000000000000000000e+00
7.638648757538519796e-01 5.290556903365387642e-01 0.000000000000000000e+00
6.021849191052189854e-01 5.338737868267227071e-01 0.000000000000000000e+00
2.106910323917463579e-01 7.580158247865367294e-01 0.000000000000000000e+00
3.829430458641687185e-01 4.301801146564040446e-01 0.000000000000000000e+00
4.029576301165533891e-01 8.084853643901990239e-03 2.507319897451263380e-01
8.896967865581505430e-01 6.302954524939434755e-01 0.000000000000000000e+00
5.527671116247571126e-01 -2.117524206575949197e-01 4.591449274014666182e-01
6.679503933683721417e-01 2.591234319215618420e-01 5.711876372723883044e-01
3.708142747958222962e-01 5.261749086075888648e-01 0.000000000000000000e+00
6.464394978444287787e-01 6.047411007040865982e-01 0.000000000000000000e+00
5.891207610464075373e-01 5.498575452593742474e-01 0.000000000000000000e+00
3.680179943964465572e-01 2.647007103264804595e-01 0.000000000000000000e+00
2.949732241454738890e-01 3.479643809153556422e-01 4.324139514068192636e-02
5.745826860561175087e-01 6.748870002501932142e-01 0.000000000000000000e+00
5.042436967377491586e-01 5.850563997198343635e-02 0.000000000000000000e+00
5.474669480626467299e-01 4.078550306310841922e-01 0.000000000000000000e+00
1.657319977611864115e-01 5.474539741052283359e-01 5.154907306955394120e-01
3.371671643508122873e-01 6.099703702818221052e-01 0.000000000000000000e+00